&control
calculation='vc-relax',
prefix='sbi5',
pseudo_dir='./',
outdir='./'
disk_io = 'none'
/
&system
ibrav=0,
nat=12,
ntyp=2,
ecutwfc=80,
ecutrho=400,
occupations = 'smearing' 
degauss = 0.005
/
&electrons
conv_thr=1.0d-8
/
&ions
/
&cell
/

ATOMIC_SPECIES
Sb 1.0 Sb.pbe-dn-rrkjus_psl.0.3.1.UPF
I 1.0 I.pbe-n-rrkjus_psl.0.2.UPF

CELL_PARAMETERS (angstrom)
   7.126857061   0.000000000  -0.000000000
  -3.563428530   6.172039263  -0.000000000
  -0.000000000  -0.000000000   7.653307909

ATOMIC_POSITIONS (crystal)
Sb       0.666666985   0.333332986   0.250000000
Sb       0.333332986   0.666666985   0.750000000
I       0.292818140   0.146409070   0.250000000
I       0.146409070   0.853590945   0.750000000
I       0.333332986   0.666666985   0.058008844
I       0.666666985   0.333332986   0.558008863
I       0.666666985   0.333332986   0.941991137
I       0.333332986   0.666666985   0.441991167
I       0.707181890   0.853590945   0.750000000
I       0.853590945   0.146409070   0.250000000
I       0.853590945   0.707181890   0.250000000
I       0.146409070   0.292818140   0.750000000

K_POINTS automatic
7 7 7 0 0 0
