&control
calculation='scf',
prefix='bi4i',
pseudo_dir='./',
outdir='./'
disk_io = 'none'
/
&system
ibrav=0,
nat=20,
ntyp=2,
ecutwfc=20,
ecutrho=100,
occupations = 'smearing' 
degauss = 0.005
/
&electrons
conv_thr=1.0d-8
/
&ions
/
&cell
/

ATOMIC_SPECIES
Bi 1.0 Bi.pz-dn-rrkjus_psl.0.2.2.UPF
I 1.0 I.pz-n-rrkjus_psl.0.2.UPF

CELL_PARAMETERS {angstrom}
       13.3822240829         0.0000000000         0.0000000000
      -12.6308880818         4.4209261101         0.0000000000
       -3.3927302748         0.5765942099        13.0800524420

ATOMIC_POSITIONS {crystal}
Bi	     0.886364996         0.113635004         0.881276011
Bi	     0.113635004         0.886364996         0.118724003
Bi	     0.658629000         0.341371000         0.870705009
Bi	     0.564242005         0.435757995         0.369361013
Bi	     0.919965982         0.080034003         0.117524996
Bi	     0.013666000         0.986334026         0.619153976
Bi	     0.080034003         0.919965982         0.882475019
Bi	     0.209473997         0.790525973         0.627768993
Bi	     0.535391986         0.464608014         0.131112993
Bi	     0.435757995         0.564242005         0.630639017
Bi	     0.986334026         0.013666000         0.380845994
Bi	     0.464608014         0.535391986         0.868887007
Bi	     0.341371000         0.658629000         0.129295006
Bi	     0.370983005         0.629016995         0.364223987
Bi	     0.629016995         0.370983005         0.635775983
Bi	     0.790525973         0.209473997         0.372231007
I	     0.731070995         0.268929005         0.136838004
I	     0.268929005         0.731070995         0.863161981
I	     0.180710003         0.819289982         0.389541000
I	     0.819289982         0.180710003         0.610459030

K_POINTS automatic
