&control
calculation='vc-relax',
prefix='sbaubr6',
pseudo_dir='./',
outdir='./'
disk_io = 'none'
nstep = 500
/
&system
ibrav=0,
nat=32,
ntyp=3,
ecutwfc=80,
ecutrho=400,
occupations = 'smearing' 
degauss = 0.005
nosym = .TRUE.
/
&electrons
conv_thr=1.0d-8
/
&ions
/
&cell
/

ATOMIC_SPECIES
Sb 1.0 Sb.pbe-dn-rrkjus_psl.0.3.1.UPF
Au 1.0 Au.pbe-dn-rrkjus_psl.0.1.UPF
Br 1.0 Br.pbe-n-rrkjus_psl.0.2.UPF

CELL_PARAMETERS (angstrom)
   9.073979731   0.132381246   0.053587333
  -4.264306022   9.650499738   0.025143805
  -1.632185671  -4.458163250  14.520528657

ATOMIC_POSITIONS (crystal)
Sb       0.663104384   0.929599107   0.627567931
Sb       0.336895616   0.070400908   0.372432099
Sb       0.962299128   0.322209070   0.873823432
Sb       0.037700876   0.677790960   0.126176539
Au       0.296256657   0.625774240   0.769827703
Au       0.703743373   0.374225730   0.230172282
Au       0.500000000   0.500000000   0.500000000
Au       0.000000000   0.000000000   0.000000000
Br       0.586350873   0.710196930   0.759920636
Br       0.413649156   0.289803040   0.240079364
Br       0.286226559   0.839172195   0.734552282
Br       0.713773441   0.160827805   0.265447718
Br       1.001841928   0.537621241   0.778445397
Br      -0.001841941   0.462378789   0.221554603
Br       0.300463712   0.409179870   0.806971502
Br       0.699536258   0.590820100   0.193028498
Br       0.639693952   0.343493368   0.517125292
Br       0.360306078   0.656506662   0.482874678
Br       0.768986265   0.712149195   0.543681128
Br       0.231013720   0.287850805   0.456318902
Br       0.808547657   0.110053832   0.974552081
Br       0.191452373   0.889946153   0.025447893
Br       0.781857059   0.805183875   0.039232568
Br       0.218142956   0.194816111   0.960767428
Br       0.661674075   0.186408951   0.747422219
Br       0.338325955   0.813591034   0.252577751
Br       0.960556816   0.034948759   0.726774379
Br       0.039443195   0.965051226   0.273225621
Br       0.748877027   0.055376613   0.501734064
Br       0.251123003   0.944623391   0.498265936
Br       0.784903142   0.443330746   0.964949463
Br       0.215096873   0.556669254   0.035050526

K_POINTS automatic
2 2 2 0 0 0
