&control
calculation='vc-relax',
prefix='cs3cu2cl11',
pseudo_dir='./',
outdir='./'
disk_io = 'none'
/
&system
ibrav=0,
nat=64,
ntyp=3,
ecutwfc=80,
ecutrho=400,
occupations = 'smearing' 
degauss = 0.005
/
&electrons
conv_thr=1.0d-8
/
&ions
/
&cell
/

ATOMIC_SPECIES
Cs 1.0 Cs.pz-sp-hgh.UPF
Cu 1.0 Cu.pz-dn-rrkjus_psl.0.2.UPF
Cl 1.0 Cl.pz-n-rrkjus_psl.0.1.UPF

CELL_PARAMETERS (angstrom)
   6.916596930   0.000000000  -0.044739097
   0.000000000  14.562572308   0.000000000
  -1.239404521   0.000000000  16.791556124

ATOMIC_POSITIONS (crystal)
Cs       0.261198802   0.630706950   0.928615418
Cs       0.261198802   0.869293050   0.428615418
Cs       0.758224618   0.018414962   0.098884809
Cs       0.758224618   0.481585034   0.598884831
Cs       0.241775382   0.518414936   0.401115199
Cs       0.750038493   0.771561951   0.674141451
Cs       0.750038493   0.728438049   0.174141466
Cs       0.738801168   0.130706950   0.571384582
Cs       0.241775382   0.981585064   0.901115169
Cs       0.249961477   0.271561951   0.825858549
Cs       0.738801168   0.369293050   0.071384597
Cs       0.249961477   0.228438034   0.325858549
Cu       0.255055425   0.307025456   0.566083946
Cu       0.249331371   0.491940831   0.167899412
Cu       0.750668644   0.991940831   0.332100602
Cu       0.750668644   0.508059169   0.832100602
Cu       0.249331371   0.008059180   0.667899398
Cu       0.744944575   0.692974544   0.433916024
Cu       0.744944575   0.807025456   0.933916054
Cu       0.255055425   0.192974559   0.066083976
Cl       0.622993236   0.199058198   0.212312872
Cl       0.242851302   0.161689800   0.541056280
Cl       0.086736996   0.838789722   0.068056709
Cl       0.029800044   0.561954095   0.093567334
Cl       0.972344597   0.794787878   0.856062214
Cl       0.970199972   0.061954072   0.406432666
Cl       0.469114442   0.944361811   0.603497195
Cl       0.741336340   0.548386515   0.409256733
Cl       0.029800044   0.938045905   0.593567364
Cl       0.488957997   0.176645349   0.990797357
Cl       0.029799608   0.431714410   0.234128931
Cl       0.237170577   0.728574491   0.679331010
Cl       0.970200386   0.931714410   0.265871069
Cl       0.377006734   0.699058183   0.287687143
Cl       0.741336340   0.951613485   0.909256703
Cl       0.237170577   0.771425509   0.179331040
Cl       0.029799608   0.068285598   0.734128931
Cl       0.469664611   0.424944293   0.243698925
Cl       0.972344597   0.705212122   0.356062214
Cl       0.530335419   0.924944323   0.256301075
Cl       0.086736996   0.661210278   0.568056701
Cl       0.488957997   0.323354666   0.490797387
Cl       0.027655421   0.294787878   0.643937786
Cl       0.511042003   0.823354666   0.009202618
Cl       0.762829423   0.228574506   0.820668990
Cl       0.469114442   0.555638189   0.103497180
Cl       0.757148728   0.661689830   0.958943720
Cl       0.511042003   0.676645334   0.509202643
Cl       0.970200386   0.568285590   0.765871069
Cl       0.913262981   0.338789722   0.431943299
Cl       0.027655421   0.205212137   0.143937801
Cl       0.622993236   0.300941817   0.712312887
Cl       0.377006734   0.800941817   0.787687113
Cl       0.258663660   0.048386486   0.090743267
Cl       0.757148728   0.838310170   0.458943750
Cl       0.530885528   0.055638174   0.396502835
Cl       0.762829423   0.271425509   0.320668960
Cl       0.970199972   0.438045935   0.906432636
Cl       0.258663660   0.451613514   0.590743297
Cl       0.530885528   0.444361841   0.896502805
Cl       0.913262981   0.161210293   0.931943299
Cl       0.242851302   0.338310200   0.041056250
Cl       0.469664611   0.075055699   0.743698925
Cl       0.530335419   0.575055677   0.756301075

K_POINTS automatic
2 2 2 0 0 0
