&control
calculation='vc-relax',
prefix='cs3cu2cl11',
pseudo_dir='./',
outdir='./'
disk_io = 'none'
/
&system
ibrav=0,
nat=64,
ntyp=3,
ecutwfc=80,
ecutrho=400,
occupations = 'smearing' 
degauss = 0.005
/
&electrons
conv_thr=1.0d-8
/
&ions
/
&cell
/

ATOMIC_SPECIES
Cs 1.0 Cs.pbe-sp-hgh.UPF
Cu 1.0 Cu.pbe-dn-rrkjus_psl.0.2.UPF
Cl 1.0 Cl.pbe-n-rrkjus_psl.0.1.UPF

CELL_PARAMETERS (angstrom)
   7.879576962   0.000000000  -0.001199903
   0.000000000  16.935312867   0.000000000
  -1.292455785   0.000000000  19.185548764

ATOMIC_POSITIONS (crystal)
Cs       0.253557910   0.630963877   0.923785609
Cs       0.253557910   0.869036123   0.423785609
Cs       0.763853433   0.024342766   0.100093519
Cs       0.763853433   0.475657230   0.600093541
Cs       0.236146567   0.524342740   0.399906489
Cs       0.742064978   0.776132777   0.674253916
Cs       0.742064978   0.723867223   0.174253931
Cs       0.746442060   0.130963877   0.576214391
Cs       0.236146567   0.975657260   0.899906459
Cs       0.257934992   0.276132777   0.825746084
Cs       0.746442060   0.369036123   0.076214406
Cs       0.257934992   0.223867208   0.325746084
Cu       0.262804024   0.311661859   0.564357431
Cu       0.243495508   0.497906972   0.168864351
Cu       0.756504507   0.997906972   0.331135663
Cu       0.756504507   0.502093028   0.831135663
Cu       0.243495508   0.002093039   0.668864337
Cu       0.737195976   0.688338141   0.435642539
Cu       0.737195976   0.811661859   0.935642569
Cu       0.262804024   0.188338156   0.064357461
Cl       0.613999075   0.202718984   0.209223659
Cl       0.260293536   0.167029001   0.540475922
Cl       0.069771943   0.833875814   0.074997647
Cl       0.021388991   0.563389006   0.090298665
Cl       0.969940612   0.795822672   0.855408926
Cl       0.978611025   0.063388983   0.409701335
Cl       0.469167440   0.947623086   0.597464897
Cl       0.739925473   0.543522052   0.413389775
Cl       0.021388991   0.936610994   0.590298695
Cl       0.498579480   0.171300166   0.985502154
Cl       0.018231472   0.442125378   0.238380109
Cl       0.229693321   0.730209973   0.683000477
Cl       0.981768522   0.942125378   0.261619891
Cl       0.386000895   0.702718969   0.290776356
Cl       0.739925473   0.956477948   0.913389745
Cl       0.229693321   0.769790027   0.183000507
Cl       0.018231472   0.057874630   0.738380109
Cl       0.463526962   0.432182554   0.247722783
Cl       0.969940612   0.704177328   0.355408926
Cl       0.536473068   0.932182584   0.252277217
Cl       0.069771943   0.666124186   0.574997639
Cl       0.498579480   0.328699849   0.485502184
Cl       0.030059406   0.295822672   0.644591074
Cl       0.501420520   0.828699849   0.014497821
Cl       0.770306679   0.230209988   0.816999523
Cl       0.469167440   0.552376914   0.097464882
Cl       0.739706494   0.667029031   0.959524078
Cl       0.501420520   0.671300151   0.514497846
Cl       0.981768522   0.557874622   0.761619891
Cl       0.930228034   0.333875814   0.425002361
Cl       0.030059406   0.204177343   0.144591089
Cl       0.613999075   0.297281031   0.709223674
Cl       0.386000895   0.797281031   0.790776326
Cl       0.260074527   0.043522023   0.086610225
Cl       0.739706494   0.832970969   0.459524108
Cl       0.530832530   0.052376899   0.402535133
Cl       0.770306679   0.269790027   0.316999493
Cl       0.978611025   0.436611024   0.909701305
Cl       0.260074527   0.456477977   0.586610255
Cl       0.530832530   0.447623116   0.902535103
Cl       0.930228034   0.166124201   0.925002361
Cl       0.260293536   0.332970999   0.040475892
Cl       0.463526962   0.067817438   0.747722783
Cl       0.536473068   0.567817416   0.752277217


K_POINTS automatic
2 2 2 0 0 0
