&control
calculation='vc-relax',
prefix='cs3sbbr6',
pseudo_dir='./',
outdir='./'
disk_io = 'none'
/
&system
ibrav=0,
nat=40,
ntyp=3,
ecutwfc=80,
ecutrho=400,
occupations = 'smearing' 
degauss = 0.005
/
&electrons
conv_thr=1.0d-8
/
&ions
/
&cell
/

ATOMIC_SPECIES
Cs 1.0 Cs.pbe-sp-hgh.UPF
Sb 1.0 Sb.pbe-dn-rrkjus_psl.0.3.1.UPF
Br 1.0 Br.pbe-n-rrkjus_psl.0.2.UPF

CELL_PARAMETERS (angstrom)
  13.649718588  -0.024969658   0.028122641
 -11.336190755   7.603042314  -0.028125055
  -2.007707350   0.612934103  12.333336610

ATOMIC_POSITIONS (crystal)
Cs       0.024421110   0.343897903   0.701611448
Cs       0.198863969   0.300102115   0.067176132
Cs       0.472297554   0.162929073   0.146117848
Cs       0.975578872   0.656102127   0.298388552
Cs       0.837070564   0.527703467   0.646117328
Cs       0.699899663   0.801137464   0.567174524
Cs       0.656102645   0.975579063   0.201611851
Cs       0.162929421   0.472296533   0.353882643
Cs       0.527702446   0.837070912   0.853882181
Cs       0.300100337   0.198862551   0.432825476
Cs       0.343897385   0.024420919   0.798388164
Cs       0.801136046   0.699897885   0.932823876
Sb       0.785904088   0.785903956   0.250002364
Sb       0.500000000   0.000000000   0.500000000
Sb       0.214095897   0.214096029   0.749997636
Sb       0.000000000   0.500000000  -0.000000000
Br       0.381520994   0.724289732   0.581388740
Br       0.140309133   0.639978367   0.808864948
Br       0.360020926   0.859689603   0.308864720
Br       0.839073168   0.721440568   0.440501281
Br       0.507204195   0.394526721   0.680574819
Br       0.605472781   0.492793997   0.180571755
Br       0.219965860   0.869952964   0.534751898
Br       0.724289453   0.381520338   0.918611647
Br       0.275710547   0.618479632   0.081388323
Br       0.859690867   0.360021603   0.191135067
Br       0.091080887   0.975613743   0.189221245
Br       0.908919106   0.024386283   0.810778755
Br       0.130047072   0.780034688   0.034751600
Br       0.278560055   0.160926781   0.940504368
Br       0.024387214   0.908920726   0.689222699
Br       0.780034140   0.130047051   0.465248102
Br       0.160926862   0.278559402   0.559498719
Br       0.639979044   0.140310397   0.691135250
Br       0.975612812   0.091079267   0.310777301
Br       0.394527219   0.507206003   0.819428215
Br       0.618478976   0.275710268   0.418611290
Br       0.869952943   0.219965312   0.965248404
Br       0.721439915   0.839073249   0.059495632
Br       0.492795805   0.605473279   0.319425211

K_POINTS automatic
2 2 2 0 0 0














