&control
calculation='scf',
prefix='cscu2i3',
pseudo_dir='./',
outdir='./'
disk_io = 'none'
/
&system
ibrav=0,
nat=12,
ntyp=3,
ecutwfc=20,
ecutrho=100,
occupations = 'smearing' 
degauss = 0.005
/
&electrons
conv_thr=1.0d-8
/
&ions
/
&cell
/

ATOMIC_SPECIES
Cs 1.0 Cs.pz-sp-hgh.UPF 
Cu 1.0 Cu.pz-dn-rrkjus_psl.0.2.UPF
I 1.0 I.pz-n-rrkjus_psl.0.2.UPF

CELL_PARAMETERS {angstrom}
        8.6827573776         0.0000000000         0.0000000000
       -2.3370009042         8.3623383364         0.0000000000
        0.0000000000         0.0000000000         6.0835890770

ATOMIC_POSITIONS {crystal}
Cs	     0.672242999         0.327757001         0.750000000
Cs	     0.327757001         0.672242999         0.250000000
Cu	     0.137505993         0.137505993         0.000000000
Cu	     0.862493992         0.862493992         0.500000000
Cu	     0.862493992         0.862493992         0.000000000
Cu	     0.137505993         0.137505993         0.500000000
I	     0.120497003         0.879503012         0.750000000
I	     0.879503012         0.120497003         0.250000000
I	     0.839177012         0.608087003         0.250000000
I	     0.160823002         0.391912997         0.750000000
I	     0.608087003         0.839177012         0.750000000
I	     0.391912997         0.160823002         0.250000000

K_POINTS automatic
   15   15   15    0    0    0
