&control
calculation='vc-relax',
prefix='cs3bibr6',
pseudo_dir='./',
outdir='./'
disk_io = 'none'
/
&system
ibrav=0,
nat=40,
ntyp=3,
ecutwfc=80,
ecutrho=400,
occupations = 'smearing' 
degauss = 0.005
/
&electrons
conv_thr=1.0d-8
/
&ions
/
&cell
/

ATOMIC_SPECIES
Cs 1.0 Cs.pbe-sp-hgh.UPF
Bi 1.0 Bi.pbe-dn-rrkjus_psl.0.2.2.UPF
Br 1.0 Br.pbe-n-rrkjus_psl.0.2.UPF

CELL_PARAMETERS (angstrom)
  14.939087780   0.049451868   0.012595765
 -12.364137285   8.384934837  -0.012592838
  -2.210935266   0.674987746  13.998834903

ATOMIC_POSITIONS (crystal)
Cs       0.023478128   0.344645025   0.698740571
Cs       0.177363940   0.280361373   0.059315370
Cs       0.476527255   0.165619249   0.144639526
Cs       0.976521854   0.655355005   0.301259429
Cs       0.834380520   0.523472673   0.644639190
Cs       0.719640332   0.822638275   0.559312874
Cs       0.655355001   0.976521762   0.198740905
Cs       0.165619465   0.476527327   0.355360781
Cs       0.523472745   0.834380736   0.855360503
Cs       0.280359668   0.177361740   0.440687126
Cs       0.344645029   0.023478220   0.801259110
Cs       0.822636075   0.719638627   0.940684638
Bi       0.790415572   0.790415605   0.250008879
Bi       0.500000000   0.000000000   0.500000000
Bi       0.209584413   0.209584380   0.749991121
Bi       0.000000000   0.500000000   0.000000000
Br       0.380318324   0.722998194   0.577206711
Br       0.133065866   0.632987008   0.811602305
Br       0.367012893   0.866934238   0.311601207
Br       0.848691546   0.733113058   0.436651505
Br       0.493751990   0.375461269   0.679062701
Br       0.624537548   0.506244770   0.179058852
Br       0.214278337   0.860066185   0.532820489
Br       0.722998110   0.380318027   0.922794068
Br       0.277001890   0.619681943   0.077205902
Br       0.866934134   0.367012962   0.188397710
Br       0.096369152   0.977628136   0.196089478
Br       0.903630841   0.022371890   0.803910522
Br       0.139933457   0.785722051   0.032820478
Br       0.266885838   0.151305247   0.936657705
Br       0.022375806   0.903635686   0.696090489
Br       0.785721663   0.139933830   0.467179511
Br       0.151308484   0.266886912   0.563348495
Br       0.632987077   0.133065762   0.688398763
Br       0.977624220   0.096364307   0.303909511
Br       0.375462452   0.493755230   0.820941118
Br       0.619681646   0.277001806   0.422793319
Br       0.860066558   0.214277949   0.967179526
Br       0.733114132   0.848694783   0.063342295
Br       0.506248010   0.624538731   0.320937329

K_POINTS automatic
2 2 2 0 0 0

