&control
calculation='scf',
prefix='cscu2cl3',
pseudo_dir='./',
outdir='./'
disk_io = 'none'
/
&system
ibrav=0,
nat=12,
ntyp=3,
ecutwfc=20,
ecutrho=100,
occupations = 'smearing' 
degauss = 0.005
/
&electrons
conv_thr=1.0d-8
/
&ions
/
&cell
/

ATOMIC_SPECIES
Cs 1.0 Cs.pz-sp-hgh.UPF
Cu 1.0 Cu.pz-dn-rrkjus_psl.0.2.UPF
Cl 1.0 Cl.pz-n-rrkjus_psl.0.1.UPF

CELL_PARAMETERS {angstrom}
        7.9248623848         0.0000000000         0.0000000000
       -1.9435726433         7.6828360127         0.0000000000
        0.0000000000         0.0000000000         5.3450770378

ATOMIC_POSITIONS {crystal}
Cs	     0.687591016         0.312409014         0.250000000
Cs	     0.312409014         0.687591016         0.750000000
Cu	     0.166306004         0.166306004         0.000000000
Cu	     0.833693981         0.833693981         0.000000000
Cu	     0.833693981         0.833693981         0.500000000
Cu	     0.166306004         0.166306004         0.500000000
Cl	     0.107430004         0.892570019         0.250000000
Cl	     0.892570019         0.107430004         0.750000000
Cl	     0.160705999         0.398710996         0.250000000
Cl	     0.839294016         0.601288974         0.750000000
Cl	     0.601288974         0.839294016         0.250000000
Cl	     0.398710996         0.160705999         0.750000000

K_POINTS automatic
   3   3   3   0   0   0
