&control
calculation='vc-relax',
prefix='sbbr3',
pseudo_dir='./',
outdir='./'
disk_io = 'none'
/
&system
ibrav=0,
nat=16,
ntyp=2,
ecutwfc=80,
ecutrho=400,
occupations = 'smearing' 
degauss = 0.005
/
&electrons
conv_thr=1.0d-8
diagonalization = 'cg'
/
&ions
/
&cell
/

ATOMIC_SPECIES
Sb 1.0 Sb.pbe-dn-rrkjus_psl.0.3.1.UPF
Br 1.0 Br.pbe-n-rrkjus_psl.0.2.UPF

CELL_PARAMETERS (angstrom)
   7.483819632   0.000000000   0.000000000
   0.000000000   9.180067612   0.000792815
   0.000000000   0.000994137  10.032089940

ATOMIC_POSITIONS (crystal)
Sb       0.491024379   0.511935186   0.250070466
Sb       0.991024408   0.988064814   0.749929534
Sb       0.508975592   0.488064844   0.749929534
Sb       0.008975614   0.011935169   0.250070466
Br       0.634637864   0.326488249   0.936462488
Br       0.689358903   0.107369487   0.250021581
Br       0.134637879   0.173511766   0.063537512
Br       0.134607894   0.173557032   0.436557163
Br       0.189358903   0.392630513   0.749978419
Br       0.310641097   0.892630513   0.749978419
Br       0.365362106   0.673511781   0.063537512
Br       0.865362136   0.826488219   0.936462488
Br       0.365392091   0.673557047   0.436557163
Br       0.865392121   0.826442953   0.563442837
Br       0.634607879   0.326442983   0.563442837
Br       0.810641097   0.607369487   0.250021581

K_POINTS automatic
6 6 6 0 0 0
