&control
calculation='vc-relax',
prefix='sbagcl6',
pseudo_dir='./',
outdir='./'
disk_io = 'none'
/
&system
ibrav=0,
nat=32,
ntyp=3,
ecutwfc=80,
ecutrho=400,
occupations = 'smearing' 
degauss = 0.005
/
&electrons
conv_thr=1.0d-8
/
&ions
/
&cell
/

ATOMIC_SPECIES
Sb 1.0 Sb.pbe-dn-rrkjus_psl.0.3.1.UPF
Ag 1.0 Ag.pbe-dn-rrkjus_psl.0.1.UPF
Cl 1.0 Cl.pbe-n-rrkjus_psl.0.1.UPF

CELL_PARAMETERS (angstrom)
   7.867980046  -0.002623220  -0.068260345
  -3.864025075   9.416653748   0.179206093
  -1.727330363  -4.153165208  13.711591865

ATOMIC_POSITIONS (crystal)
Sb       0.645527955   0.924163404   0.620180810
Sb       0.062346070   0.682055522   0.127396261
Sb       0.354472045   0.075836574   0.379819160
Sb       0.937653945   0.317944478   0.872603753
Ag       0.290705980   0.621464894   0.767421629
Ag       0.500000000   0.500000000   0.500000000
Ag       0.709293990   0.378535135   0.232578386
Ag       0.000000000   0.000000000   0.000000000
Cl       0.773293358   0.088309002   0.959340591
Cl       0.712191917   0.161382022   0.256174537
Cl       0.287808083   0.838617963   0.743825463
Cl       0.771540088   0.796389882   0.029036881
Cl       0.641338843   0.185913489   0.737973267
Cl       0.288842798   0.400200968   0.789332678
Cl       0.711157202   0.599799032   0.210667322
Cl       0.304969738   0.622761868   0.490031171
Cl       0.228459898   0.203610133   0.970963117
Cl       0.763120170   0.725605523   0.526506305
Cl       0.226706627   0.911690991   0.040659398
Cl       0.751310785   0.055053063   0.500277926
Cl       0.594208102   0.692792692   0.742012265
Cl       0.960017779   0.026604777   0.723842234
Cl       0.236879860   0.274394477   0.473493695
Cl       0.358661157   0.814086481   0.262026733
Cl       0.982975229   0.548305706   0.794805357
Cl       0.754091196   0.424881781   0.965895400
Cl       0.245908804   0.575118219   0.034104605
Cl       0.017024751   0.451694294   0.205194657
Cl       0.405791927   0.307207308   0.257987764
Cl       0.248689186   0.944946948   0.499722045
Cl       0.695030292   0.377238102   0.509968829
Cl       0.039982213   0.973395238   0.276157737

K_POINTS automatic
3 3 3 0 0 0
