&control
calculation='scf',
prefix='aubr3',
pseudo_dir='./',
outdir='./'
disk_io = 'none'
/
&system
ibrav=0,
nat=32,
ntyp=2,
ecutwfc=20,
ecutrho=100,
occupations = 'smearing' 
degauss = 0.005
/
&electrons
conv_thr=1.0d-8
/
&ions
/
&cell
/

ATOMIC_SPECIES
Au 1.0 Au.pz-dn-rrkjus_psl.0.1.UPF
Br 1.0 Br.pz-n-rrkjus_psl.0.2.UPF

CELL_PARAMETERS {angstrom}
        7.0495710373         0.0000000000         0.0000000000
        0.0000000000        20.8127136230         0.0000000000
       -4.1152100022         0.0000000000         8.1586392065

ATOMIC_POSITIONS {crystal}
Au	     0.631106019         0.710695982         0.785134971
Au	     0.368894011         0.210695997         0.714865029
Au	     0.368894011         0.289303988         0.214864999
Au	     0.631106019         0.789304018         0.285135001
Au	     0.735248029         0.538026989         0.760015011
Au	     0.264752001         0.038027000         0.739984989
Au	     0.264752001         0.461973011         0.239985004
Au	     0.735248029         0.961973011         0.260015011
Br	     0.329721987         0.767108977         0.788348973
Br	     0.670278013         0.267109007         0.711651027
Br	     0.670278013         0.232890993         0.211650997
Br	     0.329721987         0.732891023         0.288349003
Br	     0.815980971         0.811406016         0.792959988
Br	     0.184018999         0.311405987         0.707040012
Br	     0.184018999         0.188593999         0.207039997
Br	     0.815980971         0.688593984         0.292959988
Br	     0.443951994         0.894225001         0.267334014
Br	     0.556047976         0.394225001         0.232666001
Br	     0.556047976         0.105774999         0.732666016
Br	     0.443951994         0.605774999         0.767333984
Br	     0.530596018         0.060254999         0.229905993
Br	     0.469404012         0.560254991         0.270094007
Br	     0.469404012         0.939745009         0.770093977
Br	     0.530596018         0.439745009         0.729906023
Br	     0.030943001         0.021374000         0.254022002
Br	     0.969057024         0.521373987         0.245977998
Br	     0.969057024         0.978626013         0.745977998
Br	     0.030943001         0.478626013         0.754022002
Br	     0.931822002         0.856657028         0.291819006
Br	     0.068177998         0.356656998         0.208180994
Br	     0.068177998         0.143343002         0.708181024
Br	     0.931822002         0.643342972         0.791818976

K_POINTS automatic
   13   13   13    0    0    0
