&control
calculation='scf',
prefix='csaucl3',
pseudo_dir='./',
outdir='./'
disk_io = 'none'
/
&system
ibrav=0,
nat=10,
ntyp=3,
ecutwfc=20,
ecutrho=100,
occupations = 'smearing' 
degauss = 0.005
/
&electrons
conv_thr=1.0d-8
/
&ions
/
&cell
/

ATOMIC_SPECIES
Cs 1.0 Cs.pz-sp-hgh.UPF
Au 1.0 Au.pz-dn-rrkjus_psl.0.1.UPF
Cl 1.0 Cl.pz-n-rrkjus_psl.0.1.UPF

CELL_PARAMETERS {angstrom}
        7.8071026802         0.0000000000         0.0000000000
        0.4089285457         7.7963856821         0.0000000000
       -4.1080151863        -3.8981924361         5.3739333099

ATOMIC_POSITIONS {crystal}
Cs	     0.250000000         0.750000000         0.500000000
Cs	     0.750000000         0.250000000         0.500000000
Au	     0.500000000         0.500000000         0.000000000
Au	     0.000000000         0.000000000         0.000000000
Cl	     0.295170993         0.295170993         0.000000000
Cl	     0.704828978         0.704828978         0.000000000
Cl	     0.780332983         0.780332983         0.560666025
Cl	     0.780332983         0.219667003         0.000000000
Cl	     0.219667003         0.219667003         0.439334005
Cl	     0.219667003         0.780332983         0.000000000

K_POINTS automatic
   11   11   11    0    0    0
