 &control
    calculation='nscf'
    pseudo_dir = './',
    outdir='./',
    prefix='euo'
    verbosity='high'
 /
 &system
    ibrav           = 2, 
    celldm(1)       = 9.91338867,
    nat             = 2, 
    ntyp            = 2,
    ecutwfc         = 150.0 
    lda_plus_u      = .true.
    lda_plus_u_kind = 1
    Hubbard_U (1)   = 6.0
    Hubbard_U (2)   = 3.0
    noncolin        = .true.
    starting_magnetization(1) = 1
    occupations     = 'smearing'
    smearing        = 'mp'
    degauss         = 0.02
    nbnd            = 30
    nosym           = .true.
 /
 &electrons
    diagonalization='david'
    conv_thr = 1.0d-7
 /
ATOMIC_SPECIES
 Eu  151.96 Eu.pbe-tm-dc.UPF
 O   15.999 O.pbe-mt.UPF
ATOMIC_POSITIONS {alat}
 Eu 0.00 0.00 0.00
 O  0.50 0.00 0.00  
K_POINTS {crystal}
64
0 0 0 .01562500
0 0 .25000000 .01562500
0 0 .50000000 .01562500
0 0 .75000000 .01562500
0 .25000000 0 .01562500
0 .25000000 .25000000 .01562500
0 .25000000 .50000000 .01562500
0 .25000000 .75000000 .01562500
0 .50000000 0 .01562500
0 .50000000 .25000000 .01562500
0 .50000000 .50000000 .01562500
0 .50000000 .75000000 .01562500
0 .75000000 0 .01562500
0 .75000000 .25000000 .01562500
0 .75000000 .50000000 .01562500
0 .75000000 .75000000 .01562500
.25000000 0 0 .01562500
.25000000 0 .25000000 .01562500
.25000000 0 .50000000 .01562500
.25000000 0 .75000000 .01562500
.25000000 .25000000 0 .01562500
.25000000 .25000000 .25000000 .01562500
.25000000 .25000000 .50000000 .01562500
.25000000 .25000000 .75000000 .01562500
.25000000 .50000000 0 .01562500
.25000000 .50000000 .25000000 .01562500
.25000000 .50000000 .50000000 .01562500
.25000000 .50000000 .75000000 .01562500
.25000000 .75000000 0 .01562500
.25000000 .75000000 .25000000 .01562500
.25000000 .75000000 .50000000 .01562500
.25000000 .75000000 .75000000 .01562500
.50000000 0 0 .01562500
.50000000 0 .25000000 .01562500
.50000000 0 .50000000 .01562500
.50000000 0 .75000000 .01562500
.50000000 .25000000 0 .01562500
.50000000 .25000000 .25000000 .01562500
.50000000 .25000000 .50000000 .01562500
.50000000 .25000000 .75000000 .01562500
.50000000 .50000000 0 .01562500
.50000000 .50000000 .25000000 .01562500
.50000000 .50000000 .50000000 .01562500
.50000000 .50000000 .75000000 .01562500
.50000000 .75000000 0 .01562500
.50000000 .75000000 .25000000 .01562500
.50000000 .75000000 .50000000 .01562500
.50000000 .75000000 .75000000 .01562500
.75000000 0 0 .01562500
.75000000 0 .25000000 .01562500
.75000000 0 .50000000 .01562500
.75000000 0 .75000000 .01562500
.75000000 .25000000 0 .01562500
.75000000 .25000000 .25000000 .01562500
.75000000 .25000000 .50000000 .01562500
.75000000 .25000000 .75000000 .01562500
.75000000 .50000000 0 .01562500
.75000000 .50000000 .25000000 .01562500
.75000000 .50000000 .50000000 .01562500
.75000000 .50000000 .75000000 .01562500
.75000000 .75000000 0 .01562500
.75000000 .75000000 .25000000 .01562500
.75000000 .75000000 .50000000 .01562500
.75000000 .75000000 .75000000 .01562500
