&control
calculation='vc-relax',
prefix='cs2agbr4',
pseudo_dir='./',
outdir='./'
disk_io = 'none'
/
&system
ibrav=0,
nat=28,
ntyp=3,
ecutwfc=80,
ecutrho=400,
occupations = 'smearing' 
degauss = 0.005
/
&electrons
conv_thr=1.0d-8
/
&ions
/
&cell
/

ATOMIC_SPECIES
Cs 1.0 Cs.pbe-sp-hgh.UPF
Ag 1.0 Ag.pbe-dn-rrkjus_psl.0.1.UPF
Br 1.0 Br.pbe-n-rrkjus_psl.0.2.UPF       

CELL_PARAMETERS (angstrom)
   8.404831779   0.000000000   0.000000000
   0.000000000  10.324618934   0.000372180
   0.000000000   0.000446150  14.387489431

ATOMIC_POSITIONS (crystal)
Cs       0.250000000   0.155288231   0.917650021
Cs       0.750000000   0.344749263   0.417690940
Cs       0.250000000   0.655250767   0.582309060
Cs       0.250000000   0.059820194   0.295846533
Cs       0.750000000   0.940179826   0.704153467
Cs       0.750000000   0.844711754   0.082349964
Cs       0.250000000   0.559840361   0.204153151
Cs       0.750000000   0.440159609   0.795846834
Ag       0.250000000   0.702461850   0.892779827
Ag       0.250000000   0.202390851   0.607225904
Ag       0.750000000   0.797609134   0.392774066
Ag       0.750000000   0.297538150   0.107220188
Br       0.555044068   0.227983289   0.627061483
Br       0.944955932   0.227983289   0.627061483
Br       0.555095520   0.728001195   0.872946714
Br       0.250000000   0.344496981   0.453210325
Br       0.055044091   0.772016711   0.372938517
Br       0.250000000   0.844493816   0.046766749
Br       0.444904450   0.271998790   0.127053286
Br       0.750000000   0.519680180   0.199246574
Br       0.944904480   0.728001195   0.872946714
Br       0.250000000   0.480319820   0.800753433
Br       0.055095543   0.271998790   0.127053286
Br       0.750000000   1.019853316   0.300710779
Br       0.444955902   0.772016711   0.372938517
Br       0.750000000   0.655502989   0.546789645
Br       0.750000000   0.155506199   0.953233266
Br       0.250000000  -0.019853304   0.699289221

K_POINTS automatic
3 3 3 0 0 0
