&control
calculation='vc-relax',
prefix='cs2bii6',
pseudo_dir='./',
outdir='./'
disk_io = 'none'
/
&system
ibrav=0,
nat=36,
ntyp=3,
ecutwfc=80,
ecutrho=400,
occupations = 'smearing' 
degauss = 0.005
nosym = .true.
/
&electrons
conv_thr=1.0d-8
/
&ions
/
&cell
/

ATOMIC_SPECIES
Cs 1.0 Cs.pbe-sp-hgh.UPF
Bi 1.0 Bi.pbe-dn-rrkjus_psl.0.2.2.UPF
I 1.0 I.pbe-n-rrkjus_psl.0.2.UPF

CELL_PARAMETERS (angstrom)
  12.859975330  -0.021728998   0.000002271
   4.363232218  12.097175449   0.000002905
  -8.611603081  -6.037722353   7.400374810

ATOMIC_POSITIONS (crystal)
Cs       0.374998905   0.874680512   0.999679744
Cs       0.875000567   0.375319076   0.000320182
Cs       0.125319217   0.625000897   0.000319690
Cs       0.624681293   0.124999589   0.999680428
Cs       0.624681280   0.625000934   0.499681679
Cs       0.875000745   0.874680455   0.499681598
Cs       0.374998959   0.375319118   0.500318486
Cs       0.125319086   0.124999465   0.500318220
Bi       0.749999785   0.250000222   0.499999762
Bi       0.000000311  -0.000000195   0.000000179
Bi       0.500000092   0.500000814  -0.000000212
Bi       0.250000072   0.750000056   0.500000290
I       0.999600303   0.254638535   0.255037854
I       0.627298873   0.627298792  -0.000000205
I       0.126903870   0.126904022  -0.000000170
I       0.876904441   0.376904391   0.499999902
I       0.623095558   0.123095346   0.500000234
I       0.873096411   0.873096647   0.000000136
I       0.372701436   0.372701312   0.000000282
I       0.122701102   0.622701108   0.500000030
I       0.999600257   0.744562654   0.744962066
I       0.745361539   0.000399446   0.744962294
I       0.500442016   0.755935413   0.255493578
I      -0.005051223   0.750442322   0.244506353
I       0.505936057   0.750442543   0.755493461
I       0.255437091   0.000399480   0.255037765
I       0.249557551   1.005051399   0.755493812
I       0.755051738   0.499557711   0.255493948
I       0.244063685   0.499557597   0.744506016
I       0.500441880   0.244948075   0.744506407
I       0.249557397   0.494063445   0.244506005
I       0.494559188   0.249600318   0.244958821
I       1.004641939   0.249600274   0.755041515
I       0.750400134  -0.004641319   0.244958794
I       0.750400248   0.505441321   0.755041358
I       0.377298267   0.877298227   0.499999724

K_POINTS automatic
4 4 4 0 0 0
