&control
calculation='vc-relax',
prefix='cssbi6',
pseudo_dir='./',
outdir='./'
disk_io = 'none'
/
&system
ibrav=0,
nat=16,
ntyp=3,
ecutwfc=80,
ecutrho=400,
occupations = 'smearing' 
degauss = 0.005
/
&electrons
conv_thr=1.0d-8
/
&ions
/
&cell
/

ATOMIC_SPECIES
Cs 1.0 Cs.pbe-sp-hgh.UPF
Sb 1.0 Sb.pbe-dn-rrkjus_psl.0.3.1.UPF
I 1.0 I.pbe-n-rrkjus_psl.0.2.UPF

CELL_PARAMETERS (angstrom)
   7.160249760   1.499956139   0.087746144
  -2.782936596   6.775102694  -0.091350753
  -2.057885157   1.083969038  15.499029484

ATOMIC_POSITIONS (crystal)
Cs       0.943488744   0.944210350   0.249493317
Cs       0.056511279   0.055789673   0.750506683
Sb       0.500000000   0.000000000   0.500000000
Sb      -0.000000000   0.500000000  -0.000000000
I        0.292807657   0.317337086   0.427908901
I        0.682891509   0.707710151   0.928009510
I        0.861195961   0.441451042   0.174512339
I        0.707192343   0.682662943   0.572091069
I        0.558867921   0.138385818   0.674658776
I        0.138804039   0.558548928   0.825487661
I        0.208327550   0.866727412   0.040231575
I        0.132745442   0.792252994   0.540112017
I        0.791672465   0.133272618   0.959768399
I        0.441132049   0.861614182   0.325341224
I        0.867254588   0.207747021   0.459888012
I        0.317108520   0.292289849   0.071990520

K_POINTS automatic
4 4 4 0 0 0
