&control
calculation='vc-relax',
prefix='cs3au2i11',
pseudo_dir='./',
outdir='./'
disk_io = 'none'
/
&system
ibrav=0,
nat=64,
ntyp=3,
ecutwfc=80,
ecutrho=400,
occupations = 'smearing' 
degauss = 0.005
/
&electrons
conv_thr=1.0d-8
/
&ions
/
&cell
/

ATOMIC_SPECIES
Cs 1.0 Cs.pbe-sp-hgh.UPF
Au 1.0 Au.pbe-dn-rrkjus_psl.0.1.UPF
I 1.0 I.pbe-n-rrkjus_psl.0.2.UPF

CELL_PARAMETERS (angstrom)
   8.284584246   0.000000000  -0.047168561
   0.000000000  17.898670142   0.000000000
  -1.461777892   0.000000000  20.758700478

ATOMIC_POSITIONS (crystal)
Cs       0.259191480   0.620102582   0.926123498
Cs       0.259191480   0.879897418   0.426123498
Cs       0.732856317   0.021917321   0.108183419
Cs       0.732856317   0.478082675   0.608183441
Cs       0.267143683   0.521917295   0.391816589
Cs       0.756131703   0.766599548   0.684984078
Cs       0.756131703   0.733400452   0.184984093
Cs       0.740808490   0.120102582   0.573876502
Cs       0.267143683   0.978082705   0.891816559
Cs       0.243868267   0.266599548   0.815015922
Cs       0.740808490   0.379897418   0.073876517
Cs       0.243868267   0.233400437   0.315015922
Au       0.249319107   0.311067831   0.555975601
Au       0.246196827   0.506632151   0.165926722
Au       0.753803188   1.006632151   0.334073292
Au       0.753803188   0.493367849   0.834073292
Au       0.246196827  -0.006632140   0.665926708
Au       0.750680893   0.688932169   0.444024369
Au       0.750680893   0.811067831   0.944024399
Au       0.249319107   0.188932184   0.055975631
I        0.583215994   0.205447739   0.193658758
I        0.261275130   0.161604242   0.535919031
I        0.074000047   0.847752050   0.080207274
I        0.019279482   0.577789441   0.088627048
I        0.992961452   0.793228649   0.866237802
I        0.980720534   0.077789418   0.411372952
I        0.479096752   0.932464319   0.598848088
I        0.777507314   0.540413071   0.426886874
I        0.019279482   0.922210559   0.588627078
I        0.497443343   0.167977049   0.981507117
I        0.012541140   0.447588405   0.232503509
I        0.244017941   0.723850499   0.693380294
I        0.987458854   0.947588405   0.267496491
I        0.416783976   0.705447724   0.306341257
I        0.777507314   0.959586929   0.926886844
I        0.244017941   0.776149501   0.193380324
I        0.012541140   0.052411603   0.732503509
I        0.473153234   0.433743519   0.241477892
I        0.992961452   0.706771351   0.366237802
I        0.526846796   0.933743549   0.258522108
I        0.074000047   0.652247950   0.580207266
I        0.497443343   0.332022966   0.481507147
I        0.007038566   0.293228649   0.633762198
I        0.502556657   0.832022966   0.018492858
I        0.755982059   0.223850514   0.806619706
I        0.479096752   0.567535681   0.098848073
I        0.738724900   0.661604272   0.964080969
I        0.502556657   0.667977034   0.518492883
I        0.987458854   0.552411595   0.767496491
I        0.925999930   0.347752050   0.419792734
I        0.007038566   0.206771366   0.133762213
I        0.583215994   0.294552276   0.693658773
I        0.416783976   0.794552276   0.806341227
I        0.222492686   0.040413042   0.073113126
I        0.738724900   0.838395728   0.464080999
I        0.520903218   0.067535666   0.401151942
I        0.755982059   0.276149501   0.306619676
I        0.980720534   0.422210589   0.911372922
I        0.222492686   0.459586958   0.573113156
I        0.520903218   0.432464349   0.901151912
I        0.925999930   0.152247965   0.919792734
I        0.261275130   0.338395758   0.035919001
I        0.473153234   0.066256473   0.741477892
I        0.526846796   0.566256451   0.758522108

K_POINTS automatic
2 2 2 0 0 0
