&control
calculation='vc-relax',
prefix='csbicl6',
pseudo_dir='./',
outdir='./'
disk_io = 'none'
/
&system
ibrav=0,
nat=16,
ntyp=3,
ecutwfc=80,
ecutrho=400,
occupations = 'smearing' 
degauss = 0.005
/
&electrons
conv_thr=1.0d-8
/
&ions
/
&cell
/

ATOMIC_SPECIES
Cs 1.0 Cs.pbe-sp-hgh.UPF
Bi 1.0 Bi.pbe-dn-rrkjus_psl.0.2.2.UPF
Cl 1.0 Cl.pbe-n-rrkjus_psl.0.1.UPF

CELL_PARAMETERS (angstrom)
   6.667378652  -0.023074209   0.068349411
  -3.764519527   5.502990085  -0.068346643
  -2.182197887   1.155976255  11.793606403

ATOMIC_POSITIONS (crystal)
Cs       0.883685359   0.883685302   0.250000121
Cs       0.116314664   0.116314721   0.749999879
Bi       0.500000000  -0.000000000   0.500000000
Bi      -0.000000000   0.500000000   0.000000000
Cl       0.445776978   0.320824306   0.384471266
Cl       0.679176477   0.554223016   0.884471290
Cl       0.772533473   0.356213984   0.173374617
Cl       0.554223022   0.679175723   0.615528704
Cl       0.643786467   0.227466932   0.673374894
Cl       0.227466527   0.643785986   0.826625383
Cl       0.225580585   0.932558732   0.044296205
Cl       0.067440138   0.774418607   0.544296278
Cl       0.774419430   0.067441298   0.955703769
Cl       0.356213503   0.772533068   0.326625106
Cl       0.932559892   0.225581408   0.455703751
Cl       0.320823552   0.445776984   0.115528740

K_POINTS automatic
4 4 4 0 0 0
