&control
calculation='scf',
prefix='cs2sbaui6',
pseudo_dir='./',
outdir='./'
disk_io = 'none'
/
&system
ibrav=0,
nat=10,
ntyp=4,
ecutwfc=20,
ecutrho=100,
occupations = 'smearing' 
degauss = 0.005
/
&electrons
conv_thr=1.0d-8
/
&ions
/
&cell
/

ATOMIC_SPECIES
Cs 1.0 Cs.pz-sp-hgh.UPF
Sb 1.0 Sb.pz-dn-rrkjus_psl.0.3.1.UPF
Au 1.0 Au.pz-dn-rrkjus_psl.0.1.UPF
I 1.0 I.pz-n-rrkjus_psl.0.2.UPF

CELL_PARAMETERS (angstrom)
   5.814887878  -0.000000000   5.814887878
   5.814887878   5.814887878  -0.000000000
  -0.000000000   5.814887878   5.814887878

ATOMIC_POSITIONS (crystal)
Sb      -0.000000000  -0.000000000   0.000000000
Au       0.500000000   0.500000000   0.500000000
I        0.744856114   0.255143856   0.744856114
I        0.255143886   0.744856114   0.255143886
I        0.744856114   0.255143886   0.255143886
I        0.255143856   0.744856114   0.744856114
I        0.744856114   0.744856114   0.255143856
I        0.255143886   0.255143886   0.744856114
Cs       0.250000000   0.250000000   0.250000000
Cs       0.749999940   0.749999940   0.749999940

K_POINTS automatic
