&control
calculation='vc-relax',
prefix='cs2aubr3',
pseudo_dir='./',
outdir='./'
disk_io = 'none'
/
&system
ibrav=0,
nat=24,
ntyp=3,
ecutwfc=80,
ecutrho=400,
occupations = 'smearing' 
degauss = 0.005
/
&electrons
conv_thr=1.0d-8
/
&ions
/
&cell
/

ATOMIC_SPECIES
Cs 1.0 Cs.pbe-sp-hgh.UPF
Au 1.0 Au.pbe-dn-rrkjus_psl.0.1.UPF
Br 1.0 Br.pbe-n-rrkjus_psl.0.2.UPF

CELL_PARAMETERS (angstrom)
   5.781858820   0.000000000   0.000000000
   0.000000000  13.865340842   0.000000000
   0.000000000   0.000000000  13.793646011

ATOMIC_POSITIONS (crystal)
Cs       0.750000000   0.206868548   0.437954356
Cs       0.250000000   0.793131452   0.562045644
Cs       0.750000000   0.706868548   0.062045640
Cs       0.250000000   0.293131452   0.937954356
Cs       0.750000000   0.509397994   0.703989568
Cs       0.250000000   0.490602006   0.296010432
Cs       0.750000000   0.009397991   0.796010432
Cs       0.250000000   0.990602006   0.203989553
Au       0.750000000   0.271057314   0.115001236
Au       0.250000000   0.728942657   0.884998764
Au       0.750000000   0.771057343   0.384998764
Au       0.250000000   0.228942671   0.615001236
Br       0.750000000   0.101219762   0.070278104
Br       0.250000000   0.898780238   0.929721877
Br       0.750000000   0.601219762   0.429721907
Br       0.250000000   0.398780238   0.570278123
Br       0.750000000   0.446885762   0.133525175
Br       0.250000000   0.553114208   0.866474810
Br       0.750000000   0.946885792   0.366474840
Br       0.250000000   0.053114231   0.633525190
Br       0.750000000   0.266582250   0.788133551
Br       0.250000000   0.733417750   0.211866449
Br       0.750000000   0.766582250   0.711866449
Br       0.250000000   0.233417750   0.288133551

K_POINTS automatic
3 3 3 0 0 0
