&control
calculation='vc-relax',
prefix='cs3ag2br5',
pseudo_dir='./',
outdir='./'
disk_io = 'none'
/
&system
ibrav=0,
nat=40,
ntyp=3,
ecutwfc=80,
ecutrho=400,
occupations = 'smearing' 
degauss = 0.005
/
&electrons
conv_thr=1.0d-8
/
&ions
/
&cell
/

ATOMIC_SPECIES
Cs 1.0 Cs.pbe-sp-hgh.UPF
Ag 1.0 Ag.pbe-dn-rrkjus_psl.0.1.UPF
Br 1.0 Br.pbe-n-rrkjus_psl.0.2.UPF       

CELL_PARAMETERS (angstrom)
   8.914583316   0.000000000   0.000000000
   0.000000000  10.538667443   0.000000000
   0.000000000   0.000000000  12.756810307

ATOMIC_POSITIONS (crystal)
Cs       0.534010823   0.493724991   0.830428010
Cs       0.465989207   0.506274979   0.169571961
Cs       0.965989177  -0.006274993   0.330428039
Cs       0.034010793   1.006275009   0.669571990
Cs       0.403495483   0.750000000   0.447598209
Cs       0.034010793   0.493724991   0.669571990
Cs       0.596504547   0.250000000   0.552401791
Cs       0.465989207  -0.006274993   0.169571961
Cs       0.903495453   0.750000000   0.052401794
Cs       0.965989177   0.506274979   0.330428039
Cs       0.096504524   0.250000000   0.947598209
Cs       0.534010823   1.006275009   0.830428010
Ag       0.320745763   0.250000000   0.324725962
Ag       0.283806257   0.750000000   0.033865812
Ag       0.179254237   0.750000000   0.824725992
Ag       0.783806257   0.750000000   0.466134199
Ag       0.679254237   0.750000000   0.675274008
Ag       0.716193743   0.250000000   0.966134199
Ag       0.820745763   0.250000000   0.175274023
Ag       0.216193758   0.250000000   0.533865801
Br       0.605604250   0.250000000   0.295664372
Br       0.809831813   0.049470646   0.064412849
Br       0.798210857   0.250000000   0.781574348
Br       0.894395750   0.750000000   0.795664342
Br       0.052547998   0.750000000   0.507388636
Br       0.701789143   0.750000000   0.281574319
Br       0.690168187   0.549470653   0.564412853
Br       0.105604235   0.250000000   0.204335643
Br       0.394395750   0.750000000   0.704335658
Br       0.201789158   0.750000000   0.218425681
Br       0.309831813   0.450529347   0.435587147
Br       0.447452008   0.250000000   1.007388606
Br       0.190168187   0.950529347   0.935587147
Br       0.809831813   0.450529347   0.064412849
Br       0.309831813   0.049470646   0.435587147
Br       0.552548022   0.750000000  -0.007388631
Br       0.947451978   0.250000000   0.492611394
Br       0.190168187   0.549470653   0.935587147
Br       0.690168187   0.950529347   0.564412853
Br       0.298210827   0.250000000   0.718425652

K_POINTS automatic
3 3 3 0 0 0
