&control
calculation='vc-relax',
prefix='cs2aucl4',
pseudo_dir='./',
outdir='./'
disk_io = 'none'
/
&system
ibrav=0,
nat=28,
ntyp=3,
ecutwfc=80,
ecutrho=400,
occupations = 'smearing' 
degauss = 0.005
/
&electrons
conv_thr=1.0d-8
/
&ions
/
&cell
/

ATOMIC_SPECIES
Cs 1.0 Cs.pbe-sp-hgh.UPF
Au 1.0 Au.pbe-dn-rrkjus_psl.0.1.UPF
Cl 1.0 Cl.pbe-n-rrkjus_psl.0.1.UPF

CELL_PARAMETERS (angstrom)
   7.594710852   0.000000000   0.000000000
   0.000000000   9.829553897   0.000000000
   0.000000000   0.000000000  12.063964613

ATOMIC_POSITIONS (crystal)
Cs       0.250000000   0.146512338   0.902875915
Cs       0.750000000   0.353487677   0.402875915
Cs       0.250000000   0.646512353   0.597124085
Cs       0.250000000   0.071965999   0.299407780
Cs       0.750000000   0.928034021   0.700592220
Cs       0.750000000   0.853487647   0.097124070
Cs       0.250000000   0.571965979   0.200592205
Cs       0.750000000   0.428033991   0.799407780
Au       0.250000000   0.695997918   0.904811359
Au       0.250000000   0.195997903   0.595188641
Au       0.750000000   0.804002082   0.404811329
Au       0.750000000   0.304002082   0.095188656
Cl       0.557004897   0.211542737   0.617737715
Cl       0.942995103   0.211542737   0.617737715
Cl       0.557004897   0.711542737   0.882262285
Cl       0.250000000   0.365551344   0.444518745
Cl       0.057004920   0.788457263   0.382262285
Cl       0.250000000   0.865551374   0.055481240
Cl       0.442995073   0.288457248   0.117737715
Cl       0.750000000   0.531416696   0.177367245
Cl       0.942995103   0.711542737   0.882262285
Cl       0.250000000   0.468583304   0.822632762
Cl       0.057004920   0.288457248   0.117737715
Cl       0.750000000   1.031416696   0.322632762
Cl       0.442995073   0.788457263   0.382262285
Cl       0.750000000   0.634448626   0.555481225
Cl       0.750000000   0.134448641   0.944518775
Cl       0.250000000  -0.031416684   0.677367238

K_POINTS automatic
3 3 3 0 0 0
