&control
calculation='vc-relax',
prefix='sbcucl6',
pseudo_dir='./',
outdir='./'
disk_io = 'none'
/
&system
ibrav=0,
nat=32,
ntyp=3,
ecutwfc=80,
ecutrho=400,
occupations = 'smearing' 
degauss = 0.005
/
&electrons
conv_thr=1.0d-8
/
&ions
/
&cell
/

ATOMIC_SPECIES
Sb 1.0 Sb.pbe-dn-rrkjus_psl.0.3.1.UPF
Cu 1.0 Cu.pbe-dn-rrkjus_psl.0.2.UPF
Cl 1.0 Cl.pbe-n-rrkjus_psl.0.1.UPF

CELL_PARAMETERS (angstrom)
   8.072229864   0.103349385  -0.230234284
  -3.871715885   9.101600578   0.424333837
  -2.069664975  -3.792954896  13.937848427

ATOMIC_POSITIONS (crystal)
Sb       0.670847344   0.915260640   0.626608869
Sb       0.039502406   0.667131622   0.121719238
Sb       0.329152656   0.084739338   0.373391101
Sb       0.960497609   0.332868378   0.878280776
Cu       0.298525701   0.616040648   0.768173516
Cu       0.500000000   0.500000000   0.500000000
Cu       0.701474269   0.383959381   0.231826499
Cu       0.000000000   0.000000000   0.000000000
Cl       0.796911813   0.092147286   0.963114690
Cl       0.668393853   0.162594014   0.248073202
Cl       0.331606147   0.837405971   0.751926798
Cl       0.784331485   0.809739486   0.027984781
Cl       0.689939293   0.194813313   0.736127844
Cl       0.257420684   0.387655482   0.778230549
Cl       0.742579316   0.612344518   0.221769451
Cl       0.350356941   0.641287658   0.485956820
Cl       0.215668501   0.190260529   0.972015217
Cl       0.763707498   0.699216758   0.547010478
Cl       0.203088172   0.907852707   0.036885299
Cl       0.759517480   0.044277192   0.502937217
Cl       0.566696408   0.657067723   0.741444636
Cl       0.978890116  -0.001431295   0.725789773
Cl       0.236292532   0.300783242   0.452989522
Cl       0.310060707   0.805186657   0.263872156
Cl       1.029636594   0.577338260   0.801692004
Cl       0.758603882   0.431761073   0.951940614
Cl       0.241396118   0.568238927   0.048059391
Cl      -0.029636614   0.422661740   0.198308010
Cl       0.433303621   0.342932277   0.258555393
Cl       0.240482491   0.955722819   0.497062754
Cl       0.649643089   0.358712312   0.514043180
Cl       0.021109876   1.001431310   0.274210198

K_POINTS automatic
3 3 3 0 0 0
