&control
calculation='vc-relax',
prefix='sbcucl6',
pseudo_dir='./',
outdir='./'
disk_io = 'none'
/
&system
ibrav=0,
nat=32,
ntyp=3,
ecutwfc=80,
ecutrho=400,
occupations = 'smearing' 
degauss = 0.005
/
&electrons
conv_thr=1.0d-8
/
&ions
/
&cell
/

ATOMIC_SPECIES
Sb 1.0 Sb.pz-dn-rrkjus_psl.0.3.1.UPF
Cu 1.0 Cu.pz-dn-rrkjus_psl.0.2.UPF
Cl 1.0 Cl.pz-n-rrkjus_psl.0.1.UPF

CELL_PARAMETERS (angstrom)
   6.484091818  -0.035673915   0.005068681
  -3.227414697   9.032730797  -0.025604140
  -1.289965197  -4.183549487  12.652604186

ATOMIC_POSITIONS (crystal)
Sb       0.597771458   0.916353796   0.617694707
Sb       0.024739706   0.688734549   0.128573965
Sb       0.402228542   0.083646182   0.382305263
Sb       0.975260309   0.311265451   0.871426049
Cu       0.296994812   0.627581972   0.765113241
Cu       0.500000000   0.500000000   0.500000000
Cu       0.703005158   0.372418057   0.234886774
Cu       0.000000000   0.000000000   0.000000000
Cl       0.756090574   0.093128692   0.963313643
Cl       0.748275833   0.168645566   0.250925674
Cl       0.251724167   0.831354419   0.749074326
Cl       0.736508069   0.807036816   0.020109383
Cl       0.593037413   0.183572527   0.734681300
Cl       0.329368546   0.413824170   0.769019923
Cl       0.670631454   0.586175830   0.230980077
Cl       0.274075173   0.615590189   0.487564737
Cl       0.263491917   0.192963199   0.979890615
Cl       0.778939617   0.708512448   0.510167569
Cl       0.243909411   0.906871301   0.036686346
Cl       0.768488791   0.052821641   0.490253700
Cl       0.628339728   0.711237409   0.738652395
Cl       0.998270723   0.047291876   0.726965790
Cl       0.221060413   0.291487552   0.489832431
Cl       0.406962587   0.816427443   0.265318700
Cl       0.968433934   0.547437222   0.798337217
Cl       0.716133683   0.430603051   0.972965430
Cl       0.283866317   0.569396949   0.027034575
Cl       0.031566046   0.452562778   0.201662797
Cl       0.371660301   0.288762591   0.261347634
Cl       0.231511180   0.947178370   0.509746271
Cl       0.725924857   0.384409781   0.512435263
Cl       0.001729269   0.952708139   0.273034181

K_POINTS automatic
3 3 3 0 0 0
