&control
calculation='scf',
prefix='cs2sbagbr6',
pseudo_dir='./',
outdir='./'
disk_io = 'none'
/
&system
ibrav=0,
nat=10,
ntyp=4,
ecutwfc=20,
ecutrho=100,
occupations = 'smearing' 
degauss = 0.005
/
&electrons
conv_thr=1.0d-8
/
&ions
/
&cell
/

ATOMIC_SPECIES
Cs 1.0 Cs.pz-sp-hgh.UPF
Sb 1.0 Sb.pz-dn-rrkjus_psl.0.3.1.UPF
Ag 1.0 Ag.pz-dn-rrkjus_psl.0.1.UPF
Br 1.0 Br.pz-n-rrkjus_psl.0.2.UPF

CELL_PARAMETERS (angstrom)
   5.453529075   0.000000000   5.453529075
   5.453529075   5.453529075  -0.000000000
   0.000000000   5.453529075   5.453529075

ATOMIC_POSITIONS (crystal)
Sb      -0.000000000   0.000000000  -0.000000000
Ag       0.500000000   0.500000000   0.500000000
Br       0.746874449   0.253125521   0.746874449
Br       0.253125551   0.746874449   0.253125551
Br       0.746874449   0.253125551   0.253125551
Br       0.253125521   0.746874449   0.746874449
Br       0.746874449   0.746874449   0.253125521
Br       0.253125551   0.253125551   0.746874449
Cs       0.250000000   0.250000000   0.250000000
Cs       0.749999940   0.749999940   0.749999940

K_POINTS automatic
   19   19   19    0    0    0
