&control
calculation='scf',
prefix='cs2sbbr6',
pseudo_dir='./',
outdir='./'
disk_io = 'none'
/
&system
ibrav=0,
nat=36,
ntyp=3,
ecutwfc=20,
ecutrho=100,
occupations = 'smearing' 
degauss = 0.005
/
&electrons
conv_thr=1.0d-8
/
&ions
/
&cell
/

ATOMIC_SPECIES
Cs 1.0 Cs.pz-sp-hgh.UPF
Sb 1.0 Sb.pz-dn-rrkjus_psl.0.3.1.UPF
Br 1.0 Br.pz-n-rrkjus_psl.0.2.UPF

CELL_PARAMETERS {angstrom}
       13.8014154434         0.0000000000         0.0000000000
        4.7045743775        12.9748236276         0.0000000000
       -9.2529955577        -6.4874122676         7.9230438293

ATOMIC_POSITIONS {crystal}
Cs	     0.375000000         0.869040012         0.994040012
Cs	     0.875000000         0.380959988         0.005960000
Cs	     0.130960003         0.625000000         0.005960000
Cs	     0.619040012         0.125000000         0.994040012
Cs	     0.619040012         0.625000000         0.494040012
Cs	     0.875000000         0.869040012         0.494040012
Cs	     0.375000000         0.380959988         0.505959988
Cs	     0.130960003         0.125000000         0.505959988
Sb	     0.750000000         0.250000000         0.500000000
Sb	     0.000000000         0.000000000         0.000000000
Sb	     0.500000000         0.500000000         0.000000000
Sb	     0.250000000         0.750000000         0.500000000
Br	     0.999713004         0.241319001         0.241605997
Br	     0.621100008         0.621100008         0.000000000
Br	     0.119732000         0.119732000         0.000000000
Br	     0.869732022         0.369731992         0.500000000
Br	     0.630267978         0.130267993         0.500000000
Br	     0.880267978         0.880267978         0.000000000
Br	     0.378899992         0.378899992         0.000000000
Br	     0.128900006         0.628899992         0.500000000
Br	     0.999713004         0.758107007         0.758394003
Br	     0.758680999         0.000287000         0.758394003
Br	     0.500867009         0.744823992         0.243956000
Br	     0.006911000         0.750867009         0.256044000
Br	     0.494823992         0.750867009         0.743956029
Br	     0.241892993         0.000287000         0.241605997
Br	     0.249133006         0.993089020         0.743956029
Br	     0.743089020         0.499132991         0.243956000
Br	     0.255176008         0.499132991         0.756043971
Br	     0.500867009         0.256911010         0.756043971
Br	     0.249133006         0.505176008         0.256044000
Br	     0.508107007         0.249713004         0.258394003
Br	     0.991319001         0.249713004         0.741605997
Br	     0.750286996         0.008681000         0.258394003
Br	     0.750286996         0.491892993         0.741605997
Br	     0.371100008         0.871100008         0.500000000

K_POINTS automatic
   10   10   10    0    0    0
