&control
calculation='vc-relax',
prefix='cubr3',
pseudo_dir='./',
outdir='./'
disk_io = 'none'
nstep = 500
/
&system
ibrav=0,
nat=16,
ntyp=2,
ecutwfc=80,
ecutrho=400,
occupations = 'smearing' 
degauss = 0.005
/
&electrons
conv_thr=1.0d-8
/
&ions
/
&cell
/

ATOMIC_SPECIES
Cu 1.0 Cu.pz-dn-rrkjus_psl.0.2.UPF
Br 1.0 Br.pz-n-rrkjus_psl.0.2.UPF

CELL_PARAMETERS (angstrom)
   6.294769760   0.000000000   0.298733883
   0.000000000  11.607204252   0.000000000
  -2.449156060   0.000000000   5.325453067

ATOMIC_POSITIONS (crystal)
Cu       0.252467898   0.581542334   0.950395978
Cu       0.247532102   0.081542349   0.049604025
Cu       0.747532102   0.418457666   0.049604025
Cu       0.752467898   0.918457666   0.950395978
Br       0.040734737   0.648606495   0.174683919
Br       0.459265263   0.148606510   0.825316081
Br       0.959265234   0.351393505   0.825316081
Br       0.540734766   0.851393505   0.174683919
Br       0.933293638   1.015126336   0.722679592
Br       0.566706362   0.515126336   0.277320423
Br       0.066706340  -0.015126341   0.277320423
Br       0.433293668   0.484873664   0.722679592
Br       0.516898144   0.808517345   0.637725828
Br       0.983101856   0.308517315   0.362274142
Br       0.483101856   0.191482685   0.362274142
Br       0.016898130   0.691482655   0.637725828

K_POINTS automatic
2 2 2 0 0 0
