&control
calculation='scf',
prefix='cs2sbcui6',
pseudo_dir='./',
outdir='./'
disk_io = 'none'
/
&system
ibrav=0,
nat=10,
ntyp=4,
ecutwfc=20,
ecutrho=100,
occupations = 'smearing' 
degauss = 0.005
/
&electrons
conv_thr=1.0d-8
/
&ions
/
&cell
/

ATOMIC_SPECIES
Cs 1.0 Cs.pz-sp-hgh.UPF
Sb 1.0 Sb.pz-dn-rrkjus_psl.0.3.1.UPF
Cu 1.0 Cu.pz-dn-rrkjus_psl.0.2.UPF
I 1.0 I.pz-n-rrkjus_psl.0.2.UPF

CELL_PARAMETERS (angstrom)
   5.706811897  -0.000000000   5.706811897
   5.706811897   5.706811897  -0.000000000
  -0.000000000   5.706811897   5.706811897

ATOMIC_POSITIONS (crystal)
Sb       0.000000000   0.000000000  -0.000000000
Cu       0.500000000   0.500000000   0.500000000
I        0.739080763   0.260919207   0.739080763
I        0.260919237   0.739080763   0.260919237
I        0.739080763   0.260919237   0.260919237
I        0.260919207   0.739080763   0.739080763
I        0.739080763   0.739080763   0.260919207
I        0.260919237   0.260919237   0.739080763
Cs       0.250000000   0.250000000   0.250000000
Cs       0.749999940   0.749999940   0.749999940

K_POINTS automatic
   13   13   13    0    0    0
