&control
calculation='scf',
prefix='sbi3',
pseudo_dir='./',
outdir='./'
disk_io = 'none'
/
&system
ibrav=0,
nat=24,
ntyp=2,
ecutwfc=20,
ecutrho=100,
occupations = 'smearing' 
degauss = 0.005
/
&electrons
conv_thr=1.0d-8
/
&ions
/
&cell
/

ATOMIC_SPECIES
Sb 1.0 Sb.pz-dn-rrkjus_psl.0.3.1.UPF
I 1.0 I.pz-n-rrkjus_psl.0.2.UPF

CELL_PARAMETERS {angstrom}
        7.6668157578         0.0000000000         0.0000000000
       -3.8334078789         6.6396572123         0.0000000000
        0.0000000000         0.0000000000        22.9070339203

ATOMIC_POSITIONS {crystal}
Sb	     0.666666985         0.333332986         0.165399998
Sb	     0.333332986         0.666666985         0.834599972
Sb	     0.333332986         0.666666985         0.498733014
Sb	     0.000000000         0.000000000         0.167933002
Sb	     0.000000000         0.000000000         0.832067013
Sb	     0.666666985         0.333332986         0.501267016
I	     0.663468003         0.976413012         0.911967993
I	     0.312945008         0.336531997         0.911967993
I	     0.023587000         0.687054992         0.911967993
I	     0.336531997         0.023587000         0.088032000
I	     0.687054992         0.663468003         0.088032000
I	     0.976413012         0.312945008         0.088032000
I	     0.330134988         0.309747010         0.245300993
I	     0.979611993         0.669865012         0.245300993
I	     0.690253019         0.020388000         0.245300993
I	     0.003199000         0.356920004         0.421364993
I	     0.353720993         0.996801019         0.421364993
I	     0.643079996         0.646278977         0.421364993
I	     0.996801019         0.643079996         0.578634977
I	     0.646278977         0.003199000         0.578634977
I	     0.356920004         0.353720993         0.578634977
I	     0.669865012         0.690253019         0.754698992
I	     0.020388000         0.330134988         0.754698992
I	     0.309747010         0.979611993         0.754698992

K_POINTS automatic
   6   6   6   0   0   0
