&control
calculation='vc-relax',
prefix='sbcubr6',
pseudo_dir='./',
outdir='./'
disk_io = 'none'
/
&system
ibrav=0,
nat=32,
ntyp=3,
ecutwfc=80,
ecutrho=400,
occupations = 'smearing' 
degauss = 0.005
/
&electrons
conv_thr=1.0d-8
/
&ions
/
&cell
/

ATOMIC_SPECIES
Sb 1.0 Sb.pbe-dn-rrkjus_psl.0.3.1.UPF
Cu 1.0 Cu.pbe-dn-rrkjus_psl.0.2.UPF
Br 1.0 Br.pbe-n-rrkjus_psl.0.2.UPF

CELL_PARAMETERS (angstrom)
   8.966673459  -0.097509679  -0.835320142
  -4.543953407   9.259786272   0.728981742
  -3.230993388  -3.785175777  15.985421981

ATOMIC_POSITIONS (crystal)
Sb       0.714709084   0.923070229   0.632345531
Sb       0.002518571   0.637319100   0.108392428
Sb       0.285290916   0.076929749   0.367654439
Sb       0.997481444   0.362680900   0.891607586
Cu       0.343235931   0.645818708   0.784771650
Cu       0.500000000   0.500000000   0.500000000
Cu       0.656764039   0.354181321   0.215228365
Cu       0.000000000   0.000000000   0.000000000
Br       0.809176968   0.099942570   0.962248233
Br       0.634079475   0.145657777   0.268885398
Br       0.365920525   0.854342208   0.731114602
Br       0.782210154   0.807020851   0.037924227
Br       0.767932590   0.215307055   0.735688400
Br       0.304002351   0.423335248   0.827421447
Br       0.695997649   0.576664752   0.172578553
Br       0.367648724   0.648754337   0.501727640
Br       0.217789832   0.192979164   0.962075771
Br       0.781436517   0.701237057   0.577471889
Br       0.190823017   0.900057423   0.037751756
Br       0.762237449   0.053759757   0.507687513
Br       0.593880274   0.674405370   0.756980574
Br       1.047471172   0.021991213   0.716759151
Br       0.218563513   0.298762943   0.422528111
Br       0.232067410   0.784692915   0.264311600
Br       1.101175226   0.627239513   0.823815633
Br       0.767288727   0.441309595   0.924948817
Br       0.232711273   0.558690405   0.075051188
Br      -0.101175246   0.372760487   0.176184381
Br       0.406119755   0.325594630   0.243019455
Br       0.237762522   0.946240254   0.492312458
Br       0.632351306   0.351245633   0.498272360
Br      -0.047471180   0.978008802   0.283240820

K_POINTS automatic
3 3 3 0 0 0
