&control
calculation='vc-relax',
prefix='csbibr6',
pseudo_dir='./',
outdir='./'
disk_io = 'none'
/
&system
ibrav=0,
nat=16,
ntyp=3,
ecutwfc=80,
ecutrho=400,
occupations = 'smearing' 
degauss = 0.005
/
&electrons
conv_thr=1.0d-8
/
&ions
/
&cell
/

ATOMIC_SPECIES
Cs 1.0 Cs.pbe-sp-hgh.UPF
Bi 1.0 Bi.pbe-dn-rrkjus_psl.0.2.2.UPF
Br 1.0 Br.pbe-n-rrkjus_psl.0.2.UPF       

CELL_PARAMETERS (angstrom)
   6.673220142  -0.024011918   0.066293482
  -3.768576775   5.507294842  -0.066291832
  -2.187869738   1.158978138  11.790774042

ATOMIC_POSITIONS (crystal)
Cs       0.885061106   0.885061027   0.250000239
Cs       0.114938917   0.114938996   0.749999761
Bi       0.500000000   0.000000000   0.500000000
Bi       0.000000000   0.500000000   0.000000000
Br       0.446175409   0.321058958   0.384839531
Br       0.678941246   0.553824745   0.884839267
Br       0.772815928   0.356365884   0.173091867
Br       0.553824591   0.678941071   0.615160439
Br       0.643634025   0.227183843   0.673091481
Br       0.227184072   0.643634086   0.826908133
Br       0.225633542   0.933299569   0.044316754
Br       0.066700411   0.774366423   0.544316759
Br       0.774366473   0.066700461   0.955683220
Br       0.356365945   0.772816157   0.326908519
Br       0.933299619   0.225633592   0.455683270
Br       0.321058783   0.446175255   0.115160763

K_POINTS automatic
4 4 4 0 0 0
