&control
calculation='vc-relax',
prefix='cs3ag2cl5',
pseudo_dir='./',
outdir='./'
disk_io = 'none'
/
&system
ibrav=0,
nat=40,
ntyp=3,
ecutwfc=80,
ecutrho=400,
occupations = 'smearing' 
degauss = 0.005
/
&electrons
conv_thr=1.0d-8
/
&ions
/
&cell
/

ATOMIC_SPECIES
Cs 1.0 Cs.pbe-sp-hgh.UPF
Ag 1.0 Ag.pbe-dn-rrkjus_psl.0.1.UPF
Cl 1.0 Cl.pbe-n-rrkjus_psl.0.1.UPF

CELL_PARAMETERS (angstrom)
   8.915491356   0.000000000   0.000000000
   0.000000000  10.535470771   0.000000000
   0.000000000   0.000000000  12.768508359

ATOMIC_POSITIONS (crystal)
Cs       0.534354429   0.493896082   0.830357825
Cs       0.465645601   0.506103888   0.169642146
Cs       0.965645571  -0.006103902   0.330357854
Cs       0.034354399   1.006103918   0.669642175
Cs       0.403059403   0.750000000   0.447440014
Cs       0.034354399   0.493896082   0.669642175
Cs       0.596940627   0.250000000   0.552559986
Cs       0.465645601  -0.006103902   0.169642146
Cs       0.903059373   0.750000000   0.052559989
Cs       0.965645571   0.506103888   0.330357854
Cs       0.096940604   0.250000000   0.947440014
Cs       0.534354429   1.006103918   0.830357825
Ag       0.320614889   0.250000000   0.324529538
Ag       0.283242111   0.750000000   0.033844793
Ag       0.179385111   0.750000000   0.824529568
Ag       0.783242111   0.750000000   0.466155218
Ag       0.679385111   0.750000000   0.675470432
Ag       0.716757889   0.250000000   0.966155218
Ag       0.820614889   0.250000000   0.175470447
Ag       0.216757904   0.250000000   0.533844782
Cl       0.605387044   0.250000000   0.295508531
Cl       0.809509362   0.049346636   0.064637907
Cl       0.798421686   0.250000000   0.780982657
Cl       0.894612956   0.750000000   0.795508501
Cl       0.052663765   0.750000000   0.507396413
Cl       0.701578314   0.750000000   0.280982628
Cl       0.690490638   0.549346643   0.564637911
Cl       0.105387029   0.250000000   0.204491484
Cl       0.394612956   0.750000000   0.704491499
Cl       0.201578329   0.750000000   0.219017372
Cl       0.309509362   0.450653357   0.435362089
Cl       0.447336241   0.250000000   1.007396383
Cl       0.190490638   0.950653357   0.935362089
Cl       0.809509362   0.450653357   0.064637907
Cl       0.309509362   0.049346636   0.435362089
Cl       0.552663789   0.750000000  -0.007396408
Cl       0.947336211   0.250000000   0.492603617
Cl       0.190490638   0.549346643   0.935362089
Cl       0.690490638   0.950653357   0.564637911
Cl       0.298421656   0.250000000   0.719017343

K_POINTS automatic
3 3 3 0 0 0
