&control
calculation='scf',
prefix='cscucl3',
pseudo_dir='./',
outdir='./'
disk_io = 'none'
/
&system
ibrav=0,
nat=30,
ntyp=3,
ecutwfc=20,
ecutrho=100,
occupations = 'smearing' 
degauss = 0.005
/
&electrons
conv_thr=1.0d-8
/
&ions
/
&cell
/

ATOMIC_SPECIES
Cs 1.0 Cs.pz-sp-hgh.UPF
Cu 1.0 Cu.pz-dn-rrkjus_psl.0.2.UPF
Cl 1.0 Cl.pz-n-rrkjus_psl.0.1.UPF

CELL_PARAMETERS {angstrom}
        7.3795461655         0.0000000000         0.0000000000
       -3.6897730827         6.3908744477         0.0000000000
        0.0000000000         0.0000000000        18.4908142090

ATOMIC_POSITIONS {crystal}
Cs	     0.707958996         0.353978992         0.083333001
Cs	     0.353978992         0.646021008         0.916666985
Cs	     0.353978992         0.707958996         0.250000000
Cs	     0.646021008         0.292041004         0.750000000
Cs	     0.646021008         0.353978992         0.416667014
Cs	     0.292041004         0.646021008         0.583333015
Cu	     0.000000000         0.067423999         0.333332986
Cu	     0.067423999         0.067423999         0.166666999
Cu	     0.932576001         0.000000000         0.500000000
Cu	     0.067423999         0.000000000         0.000000000
Cu	     0.932576001         0.932576001         0.666666985
Cu	     0.000000000         0.932576001         0.833333015
Cl	     0.852078021         0.640938997         0.906114995
Cl	     0.788860977         0.147921994         0.572781980
Cl	     0.359061003         0.211138994         0.239447996
Cl	     0.640938997         0.788860977         0.739448011
Cl	     0.211138994         0.359061003         0.093884997
Cl	     0.147921994         0.359061003         0.406114995
Cl	     0.211138994         0.852078021         0.072782002
Cl	     0.359061003         0.147921994         0.927218020
Cl	     0.852078021         0.211138994         0.260551989
Cl	     0.147921994         0.788860977         0.760551989
Cl	     0.640938997         0.852078021         0.427217990
Cl	     0.788860977         0.640938997         0.593885005
Cl	     0.208485007         0.104243003         0.583333015
Cl	     0.104243003         0.895757020         0.416667014
Cl	     0.104243003         0.208485007         0.750000000
Cl	     0.895757020         0.791514993         0.250000000
Cl	     0.895757020         0.104243003         0.916666985
Cl	     0.791514993         0.895757020         0.083333001

K_POINTS automatic
   11   11   11    0    0    0
