&control
 calculation='scf',
 prefix='MAPI',
 pseudo_dir= './',
 disk_io = 'low'
/
&system
 ibrav=0,
 nat=48,
 ntyp=5,
 ecutwfc =  50,
 lspinorb = .true.
 noncolin = .true.
/
&electrons
 mixing_beta=0.7,
 conv_thr=1.d-10,
/
&ions
/
&cell
/
ATOMIC_SPECIES
Pb 207.2 pb_ns.UPF
I  126.9 i_ns.UPF
C  12.0  C.UPF
N  14.0  N.UPF
H  1.0   H.UPF

K_POINTS {automatic}
4 4 4 0 0 0

CELL_PARAMETERS {angstrom}
8.83636  0.00000  0.00000
0.00000 12.58070  0.00000
0.00000  0.00000  8.55526

ATOMIC_POSITIONS {crystal}
Pb       0.499990000   0.000000000   0.000000000
Pb       0.000000000   0.000000000   0.499990000
Pb       0.499990000   0.499990000   0.000000000
Pb       0.000000000   0.499990000   0.499990000
I        0.485710000   0.249990000   0.947070000
I        0.514271000   0.749985000   0.052909000
I        0.014280000   0.749985000   0.447082000
I        0.985700000   0.249990000   0.552900000
I        0.190197000   0.017190000   0.186146000
I        0.809790000   0.982790000   0.813840000
I        0.309790000   0.982790000   0.686140000
I        0.690188000   0.017190000   0.313844000
I        0.809790000   0.517180000   0.813840000
I        0.190200000   0.482800000   0.186150000
I        0.690190000   0.482800000   0.313840000
I        0.309790000   0.517180000   0.686140000
C        0.912980000   0.249990000   1.060980000
C        1.086980000   0.749980000   0.938980000
C        0.586990000   0.749980000   0.560990000
C        0.412990000   0.249990000   0.438990000
N        0.931980000   0.749980000   1.028980000
N        1.067980000   0.249990000   0.970980000
N        0.567990000   0.249990000   0.528990000
N        0.431990000   0.749980000   0.470990000
H        0.853124802   0.176654066   1.029156859
H        0.850781223   0.321128365   1.023311815
H        0.938901307   0.252523876   1.186484029
H        1.149177153   0.678840985   0.976653342
H        1.146837458   0.823314672   0.970803003
H        1.061060515   0.747438843   0.813476153
H        0.560961859   0.741994694   0.685984167
H        0.642720272   0.825977867   0.535010462
H        0.652790895   0.682098377   0.517697146
H        0.357261449   0.173992532   0.464979756
H        0.439018237   0.257967761   0.313995737
H        0.347188441   0.317873117   0.482279001
H        0.630340623   0.183238616   0.495133843
H        0.550686203   0.248937194   0.650056835
H        0.628339293   0.318208630   0.497559959
H        1.050517366   0.249134259   0.850001043
H        1.129893627   0.182931027   1.004627115
H        1.128910632   0.317733079   1.003347802
H        0.369640990   0.816730483   0.504848701
H        0.371634588   0.681764482   0.502424890
H        0.449296745   0.751025892   0.349923380
H        0.949439177   0.750846280   1.149960071
H        0.871056160   0.682232553   0.996621190
H        0.870063536   0.817035986   0.995324638


