&control
calculation='vc-relax',
prefix='cs5bi8',
pseudo_dir='./',
outdir='./'
disk_io = 'none'
/
&system
ibrav=0,
nat=52,
ntyp=2,
ecutwfc=80,
ecutrho=400,
occupations = 'smearing' 
degauss = 0.005
/
&electrons
conv_thr=1.0d-8
/
&ions
/
&cell
/

ATOMIC_SPECIES
Cs 1.0 Cs.pbe-sp-hgh.UPF
Bi 1.0 Bi.pbe-dn-rrkjus_psl.0.2.2.UPF

CELL_PARAMETERS (angstrom)
   7.513424599   0.000000000   0.171268644
   0.000000000  12.046484400   0.000000000
  -2.603279775   0.000000000  28.849676937

ATOMIC_POSITIONS (crystal)
Cs       0.466484854   0.559903430   0.572765141
Cs       0.747403087   0.399132306   0.021170592
Cs       0.225568224   0.819776364   0.312018700
Cs       0.252596883   0.600867664   0.978829417
Cs       0.709369469   0.522090414   0.748735408
Cs       0.774431776   0.180223621   0.687981271
Cs       0.983677334   0.797631438   0.620340235
Cs       0.709369469   0.977909586   0.248735393
Cs       0.983677334   0.702368562   0.120340205
Cs       0.225568224   0.680223636   0.812018729
Cs       0.016322676   0.202368576   0.379659795
Cs       0.016322676   0.297631438   0.879659765
Cs       0.290630502   0.477909586   0.251264592
Cs       0.774431776   0.319776364   0.187981300
Cs       0.466484854   0.940096570   0.072765126
Cs       0.747403087   0.100867686   0.521170583
Cs       0.533515146   0.440096570   0.427234889
Cs       0.252596883   0.899132336   0.478829417
Cs       0.533515146   0.059903430   0.927234859
Cs       0.290630502   0.022090425   0.751264592
Bi       0.480578152   0.728328417   0.183330985
Bi       0.745801852   0.756745099   0.480826698
Bi       0.313002122   0.162688429   0.160015781
Bi       0.196214748   0.145579055   0.257916168
Bi       0.802981042   0.617191834   0.892217077
Bi       0.011636388   0.531308480   0.370717406
Bi       0.686997907   0.662688429   0.339984204
Bi       0.062586119   0.601022278   0.471780919
Bi       0.519421848   0.228328388   0.316669015
Bi       0.011636388   0.968691520   0.870717406
Bi       0.197018988   0.117191819   0.607782923
Bi       0.480578152   0.771671583   0.683331015
Bi       0.196214748   0.354420945   0.757916138
Bi       0.519421848   0.271671612   0.816668985
Bi       0.988363631   0.468691550   0.629282594
Bi       0.507355576   0.065091600   0.393657220
Bi       0.254198148   0.256745129   0.019173305
Bi       0.254198148   0.243254871   0.519173302
Bi       0.802981042   0.882808166   0.392217077
Bi       0.686997907   0.837311571   0.839984234
Bi       0.803785282   0.645579025   0.242083832
Bi       0.803785282   0.854420975   0.742083862
Bi       0.937413855   0.398977722   0.528219081
Bi       0.507355576   0.434908404   0.893657250
Bi       0.062586119   0.898977722   0.971780919
Bi       0.492644394   0.565091596   0.106342772
Bi       0.988363631   0.031308462   0.129282579
Bi       0.937413855   0.101022285   0.028219077
Bi       0.197018988   0.382808196   0.107782923
Bi       0.492644394   0.934908404   0.606342750
Bi       0.745801852   0.743254901   0.980826698
Bi       0.313002122   0.337311571   0.660015766

K_POINTS automatic
8 8 8 0 0 0
