&control
calculation='scf',
prefix='cs3bi',
pseudo_dir='./',
outdir='./'
disk_io = 'none'
/
&system
ibrav=0,
nat=4,
ntyp=2,
ecutwfc=20,
ecutrho=100,
occupations = 'smearing' 
degauss = 0.005
/
&electrons
conv_thr=1.0d-8
/
&ions
/
&cell
/

ATOMIC_SPECIES
Cs 1.0 Cs.pz-sp-hgh.UPF
Bi 1.0 Bi.pz-dn-rrkjus_psl.0.2.2.UPF

CELL_PARAMETERS {angstrom}
        6.7429637909         0.0000000000         0.0000000000
        3.3714818954         5.8395779397         0.0000000000
        3.3714818954         1.9465259799         5.5056068806

ATOMIC_POSITIONS {crystal}
Cs     0.750000000         0.750000000         0.750000000
Cs     0.250000000         0.250000000         0.250000000
Cs     0.500000000         0.500000000         0.500000000
Bi     0.000000000         0.000000000         0.000000000

K_POINTS automatic
   14   14   14    0    0    0
