&control
calculation='vc-relax',
prefix='csau2i3',
pseudo_dir='./',
outdir='./'
disk_io = 'none'
/
&system
ibrav=0,
nat=24,
ntyp=3,
ecutwfc=80,
ecutrho=400,
occupations = 'smearing' 
degauss = 0.005
nosym = .TRUE.
/
&electrons
conv_thr=1.0d-8
/
&ions
/
&cell
/

ATOMIC_SPECIES
Cs 1.0 Cs.pbe-sp-hgh.UPF
Au 1.0 Au.pbe-dn-rrkjus_psl.0.1.UPF
I 1.0 I.pbe-n-rrkjus_psl.0.2.UPF

CELL_PARAMETERS (angstrom)
   5.558790616   0.000000000  -0.000000684
   0.000000000  11.298747469   0.000000000
  -0.000001927   0.000000000  13.463052281

ATOMIC_POSITIONS (crystal)
Cs       0.250000844   0.993126344   0.698397417
Cs       0.749999156   0.006873677   0.301602583
Cs       0.749999156   0.493126314   0.801602583
Cs       0.250000844   0.506873656   0.198397417
Au       0.500238000   0.312025483   0.499598056
Au       0.499762030   0.812025483   0.000401934
Au      -0.000237632   0.187972457   0.999598316
Au       1.000237614   0.687972442   0.500401684
Au      -0.000237632   0.312027558   0.499598286
Au       0.499762030   0.687974517   0.500401914
Au       1.000237614   0.812027558   0.000401704
Au       0.500238000   0.187974532   0.999598086
I        0.250000741   0.798559550   0.351697572
I        0.250000741   0.701440450   0.851697572
I        0.749999259   0.201440464   0.648302428
I        0.749999259   0.298559521   0.148302428
I        0.250000735   0.213066670   0.345005968
I        0.749999265   0.786933345   0.654994032
I        0.749999265   0.713066655   0.154994017
I        0.250000735   0.286933315   0.845005968
I        0.250003286   0.498479088   0.612844230
I        0.749996714   0.501520912   0.387155770
I        0.749996714   0.998479088   0.887155770
I        0.250003286   0.001520921   0.112844222

K_POINTS automatic
3 3 3 0 0 0 
