&control
calculation='vc-relax',
prefix='csbi',
pseudo_dir='./',
outdir='./'
disk_io = 'none'
/
&system
ibrav=0,
nat=16,
ntyp=2,
ecutwfc=80,
ecutrho=400,
occupations = 'smearing' 
degauss = 0.005
/
&electrons
conv_thr=1.0d-8
/
&ions
/
&cell
/

ATOMIC_SPECIES
Cs 1.0 Cs.pbe-sp-hgh.UPF
Bi 1.0 Bi.pbe-dn-rrkjus_psl.0.2.2.UPF

CELL_PARAMETERS (angstrom)
   7.876307558   0.000000000   0.000000000
   0.000000000   7.941336262   0.000000000
   0.000000000   0.000000000  13.736333313

ATOMIC_POSITIONS (crystal)
Cs       0.089841500   0.903829975   0.578329669
Cs       0.325353259   0.341946639   0.709297869
Cs       0.910158493   0.403829975   0.921670331
Cs       0.825353259   0.158053361   0.290702131
Cs       0.589841507   0.596170025   0.421670302
Cs       0.410158493   0.096170040   0.078329691
Cs       0.674646741   0.841946639   0.790702131
Cs       0.174646741   0.658053361   0.209297884
Bi       0.086698024   0.443131192   0.466155587
Bi       0.586698016   0.056868808   0.533844442
Bi       0.174219682   0.824878995   0.881084844
Bi       0.913301984   0.943131222   0.033844422
Bi       0.825780348   0.324878966   0.618915156
Bi       0.325780318   0.175121019   0.381084844
Bi       0.413301984   0.556868778   0.966155558
Bi       0.674219652   0.675121005   0.118915164

K_POINTS automatic
11 11 11 0 0 0
