 &control
    calculation     = 'bands'
    prefix          = 'si'
    restart_mode    = 'from_scratch'
    wf_collect      = .true.
    pseudo_dir      = './'
    outdir          = './'
    tprnfor         = .true.
    tstress         = .true.
 /
 &system
    ibrav           = 2
    celldm(1)       = 10.262
    nat             = 2
    ntyp            = 1
    ecutwfc         = 35
    nbnd            = 10
 /
 &electrons
    diagonalization = 'david'
    mixing_beta     = 0.7
    conv_thr        = 1.0d-13
 /
ATOMIC_SPECIES
  Si  28.0855  Si.pz-vbc.UPF
ATOMIC_POSITIONS alat
  Si   0.00  0.00  0.00
  Si   0.25  0.25  0.25
K_POINTS crystal
284
    0.0000000000     0.0000000000     0.0000000000 1
    0.0000000000     0.0116279070     0.0000000000 1
    0.0000000000     0.0232558140     0.0000000000 1
    0.0000000000     0.0348837209     0.0000000000 1
    0.0000000000     0.0465116279     0.0000000000 1
    0.0000000000     0.0581395349     0.0000000000 1
    0.0000000000     0.0697674419     0.0000000000 1
    0.0000000000     0.0813953488     0.0000000000 1
    0.0000000000     0.0930232558     0.0000000000 1
    0.0000000000     0.1046511628     0.0000000000 1
    0.0000000000     0.1162790698     0.0000000000 1
    0.0000000000     0.1279069767     0.0000000000 1
    0.0000000000     0.1395348837     0.0000000000 1
    0.0000000000     0.1511627907     0.0000000000 1
    0.0000000000     0.1627906977     0.0000000000 1
    0.0000000000     0.1744186047     0.0000000000 1
    0.0000000000     0.1860465116     0.0000000000 1
    0.0000000000     0.1976744186     0.0000000000 1
    0.0000000000     0.2093023256     0.0000000000 1
    0.0000000000     0.2209302326     0.0000000000 1
    0.0000000000     0.2325581395     0.0000000000 1
    0.0000000000     0.2441860465     0.0000000000 1
    0.0000000000     0.2558139535     0.0000000000 1
    0.0000000000     0.2674418605     0.0000000000 1
    0.0000000000     0.2790697674     0.0000000000 1
    0.0000000000     0.2906976744     0.0000000000 1
    0.0000000000     0.3023255814     0.0000000000 1
    0.0000000000     0.3139534884     0.0000000000 1
    0.0000000000     0.3255813953     0.0000000000 1
    0.0000000000     0.3372093023     0.0000000000 1
    0.0000000000     0.3488372093     0.0000000000 1
    0.0000000000     0.3604651163     0.0000000000 1
    0.0000000000     0.3720930233     0.0000000000 1
    0.0000000000     0.3837209302     0.0000000000 1
    0.0000000000     0.3953488372     0.0000000000 1
    0.0000000000     0.4069767442     0.0000000000 1
    0.0000000000     0.4186046512     0.0000000000 1
    0.0000000000     0.4302325581     0.0000000000 1
    0.0000000000     0.4418604651     0.0000000000 1
    0.0000000000     0.4534883721     0.0000000000 1
    0.0000000000     0.4651162791     0.0000000000 1
    0.0000000000     0.4767441860     0.0000000000 1
    0.0000000000     0.4883720930     0.0000000000 1
    0.0000000000     0.5000000000     0.0000000000 1
    0.0116279070     0.5000000000     0.0000000000 1
    0.0232558140     0.5000000000     0.0000000000 1
    0.0348837209     0.5000000000     0.0000000000 1
    0.0465116279     0.5000000000     0.0000000000 1
    0.0581395349     0.5000000000     0.0000000000 1
    0.0697674419     0.5000000000     0.0000000000 1
    0.0813953488     0.5000000000     0.0000000000 1
    0.0930232558     0.5000000000     0.0000000000 1
    0.1046511628     0.5000000000     0.0000000000 1
    0.1162790698     0.5000000000     0.0000000000 1
    0.1279069767     0.5000000000     0.0000000000 1
    0.1395348837     0.5000000000     0.0000000000 1
    0.1511627907     0.5000000000     0.0000000000 1
    0.1627906977     0.5000000000     0.0000000000 1
    0.1744186047     0.5000000000     0.0000000000 1
    0.1860465116     0.5000000000     0.0000000000 1
    0.1976744186     0.5000000000     0.0000000000 1
    0.2093023256     0.5000000000     0.0000000000 1
    0.2209302326     0.5000000000     0.0000000000 1
    0.2325581395     0.5000000000     0.0000000000 1
    0.2441860465     0.5000000000     0.0000000000 1
    0.2558139535     0.5000000000     0.0000000000 1
    0.2674418605     0.5000000000     0.0000000000 1
    0.2790697674     0.5000000000     0.0000000000 1
    0.2906976744     0.5000000000     0.0000000000 1
    0.3023255814     0.5000000000     0.0000000000 1
    0.3139534884     0.5000000000     0.0000000000 1
    0.3255813953     0.5000000000     0.0000000000 1
    0.3372093023     0.5000000000     0.0000000000 1
    0.3488372093     0.5000000000     0.0000000000 1
    0.3604651163     0.5000000000     0.0000000000 1
    0.3720930233     0.5000000000     0.0000000000 1
    0.3837209302     0.5000000000     0.0000000000 1
    0.3953488372     0.5000000000     0.0000000000 1
    0.4069767442     0.5000000000     0.0000000000 1
    0.4186046512     0.5000000000     0.0000000000 1
    0.4302325581     0.5000000000     0.0000000000 1
    0.4418604651     0.5000000000     0.0000000000 1
    0.4534883721     0.5000000000     0.0000000000 1
    0.4651162791     0.5000000000     0.0000000000 1
    0.4767441860     0.5000000000     0.0000000000 1
    0.4883720930     0.5000000000     0.0000000000 1
    0.5000000000     0.5000000000     0.0000000000 1
    0.4918032787     0.4918032787     0.0000000000 1
    0.4836065574     0.4836065574     0.0000000000 1
    0.4754098361     0.4754098361     0.0000000000 1
    0.4672131148     0.4672131148     0.0000000000 1
    0.4590163934     0.4590163934     0.0000000000 1
    0.4508196721     0.4508196721     0.0000000000 1
    0.4426229508     0.4426229508     0.0000000000 1
    0.4344262295     0.4344262295     0.0000000000 1
    0.4262295082     0.4262295082     0.0000000000 1
    0.4180327869     0.4180327869     0.0000000000 1
    0.4098360656     0.4098360656     0.0000000000 1
    0.4016393443     0.4016393443     0.0000000000 1
    0.3934426230     0.3934426230     0.0000000000 1
    0.3852459016     0.3852459016     0.0000000000 1
    0.3770491803     0.3770491803     0.0000000000 1
    0.3688524590     0.3688524590     0.0000000000 1
    0.3606557377     0.3606557377     0.0000000000 1
    0.3524590164     0.3524590164     0.0000000000 1
    0.3442622951     0.3442622951     0.0000000000 1
    0.3360655738     0.3360655738     0.0000000000 1
    0.3278688525     0.3278688525     0.0000000000 1
    0.3196721311     0.3196721311     0.0000000000 1
    0.3114754098     0.3114754098     0.0000000000 1
    0.3032786885     0.3032786885     0.0000000000 1
    0.2950819672     0.2950819672     0.0000000000 1
    0.2868852459     0.2868852459     0.0000000000 1
    0.2786885246     0.2786885246     0.0000000000 1
    0.2704918033     0.2704918033     0.0000000000 1
    0.2622950820     0.2622950820     0.0000000000 1
    0.2540983607     0.2540983607     0.0000000000 1
    0.2459016393     0.2459016393     0.0000000000 1
    0.2377049180     0.2377049180     0.0000000000 1
    0.2295081967     0.2295081967     0.0000000000 1
    0.2213114754     0.2213114754     0.0000000000 1
    0.2131147541     0.2131147541     0.0000000000 1
    0.2049180328     0.2049180328     0.0000000000 1
    0.1967213115     0.1967213115     0.0000000000 1
    0.1885245902     0.1885245902     0.0000000000 1
    0.1803278689     0.1803278689     0.0000000000 1
    0.1721311475     0.1721311475     0.0000000000 1
    0.1639344262     0.1639344262     0.0000000000 1
    0.1557377049     0.1557377049     0.0000000000 1
    0.1475409836     0.1475409836     0.0000000000 1
    0.1393442623     0.1393442623     0.0000000000 1
    0.1311475410     0.1311475410     0.0000000000 1
    0.1229508197     0.1229508197     0.0000000000 1
    0.1147540984     0.1147540984     0.0000000000 1
    0.1065573770     0.1065573770     0.0000000000 1
    0.0983606557     0.0983606557     0.0000000000 1
    0.0901639344     0.0901639344     0.0000000000 1
    0.0819672131     0.0819672131     0.0000000000 1
    0.0737704918     0.0737704918     0.0000000000 1
    0.0655737705     0.0655737705     0.0000000000 1
    0.0573770492     0.0573770492     0.0000000000 1
    0.0491803279     0.0491803279     0.0000000000 1
    0.0409836066     0.0409836066     0.0000000000 1
    0.0327868852     0.0327868852     0.0000000000 1
    0.0245901639     0.0245901639     0.0000000000 1
    0.0163934426     0.0163934426     0.0000000000 1
    0.0081967213     0.0081967213     0.0000000000 1
    0.0000000000     0.0000000000     0.0000000000 1
    0.0066666667     0.0066666667     0.0066666667 1
    0.0133333333     0.0133333333     0.0133333333 1
    0.0200000000     0.0200000000     0.0200000000 1
    0.0266666667     0.0266666667     0.0266666667 1
    0.0333333333     0.0333333333     0.0333333333 1
    0.0400000000     0.0400000000     0.0400000000 1
    0.0466666667     0.0466666667     0.0466666667 1
    0.0533333333     0.0533333333     0.0533333333 1
    0.0600000000     0.0600000000     0.0600000000 1
    0.0666666667     0.0666666667     0.0666666667 1
    0.0733333333     0.0733333333     0.0733333333 1
    0.0800000000     0.0800000000     0.0800000000 1
    0.0866666667     0.0866666667     0.0866666667 1
    0.0933333333     0.0933333333     0.0933333333 1
    0.1000000000     0.1000000000     0.1000000000 1
    0.1066666667     0.1066666667     0.1066666667 1
    0.1133333333     0.1133333333     0.1133333333 1
    0.1200000000     0.1200000000     0.1200000000 1
    0.1266666667     0.1266666667     0.1266666667 1
    0.1333333333     0.1333333333     0.1333333333 1
    0.1400000000     0.1400000000     0.1400000000 1
    0.1466666667     0.1466666667     0.1466666667 1
    0.1533333333     0.1533333333     0.1533333333 1
    0.1600000000     0.1600000000     0.1600000000 1
    0.1666666667     0.1666666667     0.1666666667 1
    0.1733333333     0.1733333333     0.1733333333 1
    0.1800000000     0.1800000000     0.1800000000 1
    0.1866666667     0.1866666667     0.1866666667 1
    0.1933333333     0.1933333333     0.1933333333 1
    0.2000000000     0.2000000000     0.2000000000 1
    0.2066666667     0.2066666667     0.2066666667 1
    0.2133333333     0.2133333333     0.2133333333 1
    0.2200000000     0.2200000000     0.2200000000 1
    0.2266666667     0.2266666667     0.2266666667 1
    0.2333333333     0.2333333333     0.2333333333 1
    0.2400000000     0.2400000000     0.2400000000 1
    0.2466666667     0.2466666667     0.2466666667 1
    0.2533333333     0.2533333333     0.2533333333 1
    0.2600000000     0.2600000000     0.2600000000 1
    0.2666666667     0.2666666667     0.2666666667 1
    0.2733333333     0.2733333333     0.2733333333 1
    0.2800000000     0.2800000000     0.2800000000 1
    0.2866666667     0.2866666667     0.2866666667 1
    0.2933333333     0.2933333333     0.2933333333 1
    0.3000000000     0.3000000000     0.3000000000 1
    0.3066666667     0.3066666667     0.3066666667 1
    0.3133333333     0.3133333333     0.3133333333 1
    0.3200000000     0.3200000000     0.3200000000 1
    0.3266666667     0.3266666667     0.3266666667 1
    0.3333333333     0.3333333333     0.3333333333 1
    0.3400000000     0.3400000000     0.3400000000 1
    0.3466666667     0.3466666667     0.3466666667 1
    0.3533333333     0.3533333333     0.3533333333 1
    0.3600000000     0.3600000000     0.3600000000 1
    0.3666666667     0.3666666667     0.3666666667 1
    0.3733333333     0.3733333333     0.3733333333 1
    0.3800000000     0.3800000000     0.3800000000 1
    0.3866666667     0.3866666667     0.3866666667 1
    0.3933333333     0.3933333333     0.3933333333 1
    0.4000000000     0.4000000000     0.4000000000 1
    0.4066666667     0.4066666667     0.4066666667 1
    0.4133333333     0.4133333333     0.4133333333 1
    0.4200000000     0.4200000000     0.4200000000 1
    0.4266666667     0.4266666667     0.4266666667 1
    0.4333333333     0.4333333333     0.4333333333 1
    0.4400000000     0.4400000000     0.4400000000 1
    0.4466666667     0.4466666667     0.4466666667 1
    0.4533333333     0.4533333333     0.4533333333 1
    0.4600000000     0.4600000000     0.4600000000 1
    0.4666666667     0.4666666667     0.4666666667 1
    0.4733333333     0.4733333333     0.4733333333 1
    0.4800000000     0.4800000000     0.4800000000 1
    0.4866666667     0.4866666667     0.4866666667 1
    0.4933333333     0.4933333333     0.4933333333 1
    0.5000000000     0.5000000000     0.5000000000 1
    0.4918032787     0.5000000000     0.4918032787 1
    0.4836065574     0.5000000000     0.4836065574 1
    0.4754098361     0.5000000000     0.4754098361 1
    0.4672131148     0.5000000000     0.4672131148 1
    0.4590163934     0.5000000000     0.4590163934 1
    0.4508196721     0.5000000000     0.4508196721 1
    0.4426229508     0.5000000000     0.4426229508 1
    0.4344262295     0.5000000000     0.4344262295 1
    0.4262295082     0.5000000000     0.4262295082 1
    0.4180327869     0.5000000000     0.4180327869 1
    0.4098360656     0.5000000000     0.4098360656 1
    0.4016393443     0.5000000000     0.4016393443 1
    0.3934426230     0.5000000000     0.3934426230 1
    0.3852459016     0.5000000000     0.3852459016 1
    0.3770491803     0.5000000000     0.3770491803 1
    0.3688524590     0.5000000000     0.3688524590 1
    0.3606557377     0.5000000000     0.3606557377 1
    0.3524590164     0.5000000000     0.3524590164 1
    0.3442622951     0.5000000000     0.3442622951 1
    0.3360655738     0.5000000000     0.3360655738 1
    0.3278688525     0.5000000000     0.3278688525 1
    0.3196721311     0.5000000000     0.3196721311 1
    0.3114754098     0.5000000000     0.3114754098 1
    0.3032786885     0.5000000000     0.3032786885 1
    0.2950819672     0.5000000000     0.2950819672 1
    0.2868852459     0.5000000000     0.2868852459 1
    0.2786885246     0.5000000000     0.2786885246 1
    0.2704918033     0.5000000000     0.2704918033 1
    0.2622950820     0.5000000000     0.2622950820 1
    0.2540983607     0.5000000000     0.2540983607 1
    0.2459016393     0.5000000000     0.2459016393 1
    0.2377049180     0.5000000000     0.2377049180 1
    0.2295081967     0.5000000000     0.2295081967 1
    0.2213114754     0.5000000000     0.2213114754 1
    0.2131147541     0.5000000000     0.2131147541 1
    0.2049180328     0.5000000000     0.2049180328 1
    0.1967213115     0.5000000000     0.1967213115 1
    0.1885245902     0.5000000000     0.1885245902 1
    0.1803278689     0.5000000000     0.1803278689 1
    0.1721311475     0.5000000000     0.1721311475 1
    0.1639344262     0.5000000000     0.1639344262 1
    0.1557377049     0.5000000000     0.1557377049 1
    0.1475409836     0.5000000000     0.1475409836 1
    0.1393442623     0.5000000000     0.1393442623 1
    0.1311475410     0.5000000000     0.1311475410 1
    0.1229508197     0.5000000000     0.1229508197 1
    0.1147540984     0.5000000000     0.1147540984 1
    0.1065573770     0.5000000000     0.1065573770 1
    0.0983606557     0.5000000000     0.0983606557 1
    0.0901639344     0.5000000000     0.0901639344 1
    0.0819672131     0.5000000000     0.0819672131 1
    0.0737704918     0.5000000000     0.0737704918 1
    0.0655737705     0.5000000000     0.0655737705 1
    0.0573770492     0.5000000000     0.0573770492 1
    0.0491803279     0.5000000000     0.0491803279 1
    0.0409836066     0.5000000000     0.0409836066 1
    0.0327868852     0.5000000000     0.0327868852 1
    0.0245901639     0.5000000000     0.0245901639 1
    0.0163934426     0.5000000000     0.0163934426 1
    0.0081967213     0.5000000000     0.0081967213 1
    0.0000000000     0.5000000000     0.0000000000 1
