 &bands
    prefix='si',
    outdir='./',
    filband = 'si.dat'
    lsym=.true.,
 /
