&control
calculation='vc-relax',
prefix='sb6br7',
pseudo_dir='./',
outdir='./'
disk_io = 'none'
/
&system
ibrav=0,
nat=104,
ntyp=2,
ecutwfc=80,
ecutrho=400,
occupations = 'smearing' 
degauss = 0.005
/
&electrons
conv_thr=1.0d-8
/
&ions
/
&cell
/

ATOMIC_SPECIES
Sb 1.0 Sb.pbe-dn-rrkjus_psl.0.3.1.UPF
Br 1.0 Br.pbe-n-rrkjus_psl.0.2.UPF

CELL_PARAMETERS {angstrom}
        9.1942987442         0.0000000000         0.0000000000
        0.0000000000        16.0172824860         0.0000000000
        0.0000000000         0.0000000000        24.4622173309

ATOMIC_POSITIONS {crystal}
Sb     0.821353018         0.834477007         0.805119991
Sb     0.821353018         0.165522993         0.194879994
Sb     0.678646982         0.334477007         0.694880009
Sb     0.678646982         0.665522993         0.305119991
Sb     0.178646997         0.165522993         0.194879994
Sb     0.178646997         0.834477007         0.805119991
Sb     0.321352988         0.665522993         0.305119991
Sb     0.321352988         0.334477007         0.694880009
Sb     0.816657007         0.781899989         0.950447977
Sb     0.816657007         0.218099996         0.049552001
Sb     0.683342993         0.281899989         0.549552023
Sb     0.683342993         0.718100011         0.450448006
Sb     0.183342993         0.218099996         0.049552001
Sb     0.183342993         0.781899989         0.950447977
Sb     0.316657007         0.718100011         0.450448006
Sb     0.316657007         0.281899989         0.549552023
Sb     0.744581997         0.656354010         0.851563990
Sb     0.744581997         0.343645990         0.148435995
Sb     0.755418003         0.156353995         0.648436010
Sb     0.755418003         0.843645990         0.351563990
Sb     0.255418003         0.343645990         0.148435995
Sb     0.255418003         0.656354010         0.851563990
Sb     0.244581997         0.843645990         0.351563990
Sb     0.244581997         0.156353995         0.648436010
Sb     0.000000000         0.614508986         0.932788014
Sb     0.000000000         0.385491014         0.067212000
Sb     0.500000000         0.114509001         0.567211986
Sb     0.500000000         0.885491014         0.432788014
Sb     0.000000000         0.925604999         0.898602009
Sb     0.000000000         0.074395001         0.101397999
Sb     0.500000000         0.425604999         0.601397991
Sb     0.500000000         0.574395001         0.398602009
Sb     0.000000000         0.672123015         0.766943991
Sb     0.000000000         0.327877015         0.233055994
Sb     0.500000000         0.172123000         0.733056009
Sb     0.500000000         0.827876985         0.266943991
Sb     0.000000000         0.903690994         0.599222004
Sb     0.000000000         0.096308999         0.400777996
Sb     0.500000000         0.403690994         0.900777996
Sb     0.500000000         0.596309006         0.099221997
Sb     0.000000000         0.321671993         0.855661988
Sb     0.000000000         0.678327978         0.144337997
Sb     0.500000000         0.821672022         0.644338012
Sb     0.500000000         0.178327993         0.355661988
Sb     0.000000000         0.544314981         0.587648988
Sb     0.000000000         0.455684990         0.412351012
Sb     0.500000000         0.044314999         0.912351012
Sb     0.500000000         0.955685019         0.087649003
Br     0.808896005         0.791662991         0.669308007
Br     0.808896005         0.208336994         0.330691993
Br     0.691103995         0.291662991         0.830691993
Br     0.691103995         0.708337009         0.169308007
Br     0.191103995         0.208336994         0.330691993
Br     0.191103995         0.791662991         0.669308007
Br     0.308896005         0.708337009         0.169308007
Br     0.308896005         0.291662991         0.830691993
Br     0.777134001         0.554210007         0.664107025
Br     0.777134001         0.445789993         0.335893005
Br     0.722865999         0.054210000         0.835892975
Br     0.722865999         0.945789993         0.164106995
Br     0.222865999         0.445789993         0.335893005
Br     0.222865999         0.554210007         0.664107025
Br     0.277134001         0.945789993         0.164106995
Br     0.277134001         0.054210000         0.835892975
Br     0.693309009         0.919435978         0.560483992
Br     0.693309009         0.080564000         0.439516008
Br     0.806690991         0.419436008         0.939516008
Br     0.806690991         0.580564022         0.060484000
Br     0.306690991         0.080564000         0.439516008
Br     0.306690991         0.919435978         0.560483992
Br     0.193308994         0.580564022         0.060484000
Br     0.193308994         0.419436008         0.939516008
Br     0.723821998         0.000000000         0.000000000
Br     0.776178002         0.500000000         0.500000000
Br     0.276178002         0.000000000         0.000000000
Br     0.223821998         0.500000000         0.500000000
Br     0.000000000         0.078043997         0.556366980
Br     0.000000000         0.921956003         0.443632990
Br     0.500000000         0.578043997         0.943633020
Br     0.500000000         0.421956003         0.056366999
Br     0.000000000         0.367974013         0.608564019
Br     0.000000000         0.632026017         0.391436011
Br     0.500000000         0.867973983         0.891435981
Br     0.500000000         0.132026002         0.108563997
Br     0.000000000         0.223330006         0.755539000
Br     0.000000000         0.776669979         0.244461000
Br     0.500000000         0.723330021         0.744461000
Br     0.500000000         0.276670009         0.255539000
Br     0.000000000         0.180400997         0.939193010
Br     0.000000000         0.819598973         0.060807001
Br     0.500000000         0.680401027         0.560806990
Br     0.500000000         0.319599003         0.439193010
Br     0.000000000         0.994463027         0.696003973
Br     0.000000000         0.005537000         0.303995997
Br     0.500000000         0.494462997         0.803996027
Br     0.500000000         0.505536973         0.196004003
Br     0.000000000         0.719102979         0.540229976
Br     0.000000000         0.280896991         0.459769994
Br     0.500000000         0.219102994         0.959770024
Br     0.500000000         0.780897021         0.040229999
Br     0.000000000         0.460689992         0.789045990
Br     0.000000000         0.539309978         0.210953996
Br     0.500000000         0.960690022         0.710954010
Br     0.500000000         0.039310001         0.289045990

K_POINTS automatic
2 2 2 0 0 0
