&control
calculation='vc-relax',
prefix='sb6br7',
pseudo_dir='./',
outdir='./'
disk_io = 'none'
/
&system
ibrav=0,
nat=104,
ntyp=2,
ecutwfc=80,
ecutrho=400,
occupations = 'smearing' 
degauss = 0.005
/
&electrons
conv_thr=1.0d-8
/
&ions
/
&cell
/

ATOMIC_SPECIES
Sb 1.0 Sb.pbe-dn-rrkjus_psl.0.3.1.UPF
Br 1.0 Br.pbe-n-rrkjus_psl.0.2.UPF

CELL_PARAMETERS (angstrom)
   9.078214980   0.000000000   0.000000000
   0.000000000  16.323173481   0.000000000
   0.000000000   0.000000000  24.380045870

ATOMIC_POSITIONS (crystal)
Sb       0.818976461   0.841166192   0.819132936
Sb       0.818976461   0.158833808   0.180867049
Sb       0.681023539   0.341166192   0.680867064
Sb       0.681023539   0.658833808   0.319132936
Sb       0.181023554   0.158833808   0.180867049
Sb       0.181023554   0.841166192   0.819132936
Sb       0.318976431   0.658833808   0.319132936
Sb       0.318976431   0.341166192   0.680867064
Sb       0.825657622   0.791510809   0.957617417
Sb       0.825657622   0.208489176   0.042382561
Sb       0.674342378   0.291510809   0.542382583
Sb       0.674342378   0.708489191   0.457617446
Sb       0.174342378   0.208489176   0.042382561
Sb       0.174342378   0.791510809   0.957617417
Sb       0.325657622   0.708489191   0.457617446
Sb       0.325657622   0.291510809   0.542382583
Sb       0.772797640   0.672533070   0.856114425
Sb       0.772797640   0.327466930   0.143885560
Sb       0.727202360   0.172533055   0.643885575
Sb       0.727202360   0.827466930   0.356114425
Sb       0.227202360   0.327466930   0.143885560
Sb       0.227202360   0.672533070   0.856114425
Sb       0.272797640   0.827466930   0.356114425
Sb       0.272797640   0.172533055   0.643885575
Sb       0.000000000   0.633321569   0.940051440
Sb       0.000000000   0.366678431   0.059948574
Sb       0.500000000   0.133321584   0.559948560
Sb       0.500000000   0.866678431   0.440051440
Sb       0.000000000   0.925713692   0.906500544
Sb       0.000000000   0.074286308   0.093499464
Sb       0.500000000   0.425713692   0.593499456
Sb       0.500000000   0.574286308   0.406500544
Sb       0.000000000   0.702479894   0.769855381
Sb       0.000000000   0.297520136   0.230144604
Sb       0.500000000   0.202479879   0.730144619
Sb       0.500000000   0.797520106   0.269855381
Sb       0.000000000   0.947452680   0.596838000
Sb       0.000000000   0.052547313   0.403162000
Sb       0.500000000   0.447452680   0.903162000
Sb       0.500000000   0.552547320   0.096837993
Sb       0.000000000   0.336193068   0.833766034
Sb       0.000000000   0.663806903   0.166233951
Sb       0.500000000   0.836193097   0.666233966
Sb       0.500000000   0.163806918   0.333766034
Sb       0.000000000   0.547629708   0.585384870
Sb       0.000000000   0.452370263   0.414615130
Sb       0.500000000   0.047629726   0.914615130
Sb       0.500000000   0.952370292   0.085384885
Br       0.806325828   0.813131947   0.678532087
Br       0.806325828   0.186868038   0.321467913
Br       0.693674172   0.313131947   0.821467913
Br       0.693674172   0.686868053   0.178532087
Br       0.193674172   0.186868038   0.321467913
Br       0.193674172   0.813131947   0.678532087
Br       0.306325828   0.686868053   0.178532087
Br       0.306325828   0.313131947   0.821467913
Br       0.783493989   0.567864974   0.657295450
Br       0.783493989   0.432135026   0.342704580
Br       0.716506011   0.067864967   0.842704550
Br       0.716506011   0.932135026   0.157295420
Br       0.216506011   0.432135026   0.342704580
Br       0.216506011   0.567864974   0.657295450
Br       0.283493989   0.932135026   0.157295420
Br       0.283493989   0.067864967   0.842704550
Br       0.693497582   0.960395562   0.578796126
Br       0.693497582   0.039604416   0.421203874
Br       0.806502418   0.460395592   0.921203874
Br       0.806502418   0.539604438   0.078796134
Br       0.306502418   0.039604416   0.421203874
Br       0.306502418   0.960395562   0.578796126
Br       0.193497567   0.539604438   0.078796134
Br       0.193497567   0.460395592   0.921203874
Br       0.748232366   0.000000000  -0.000000000
Br       0.751767634   0.500000000   0.500000000
Br       0.251767634   0.000000000   0.000000000
Br       0.248232366   0.500000000   0.500000000
Br       0.000000000   0.094672944   0.546281054
Br      -0.000000000   0.905327056   0.453718916
Br       0.500000000   0.594672944   0.953718946
Br       0.500000000   0.405327056   0.046281073
Br      -0.000000000   0.370179640   0.610343824
Br       0.000000000   0.629820390   0.389656206
Br       0.500000000   0.870179610   0.889656176
Br       0.500000000   0.129820375   0.110343802
Br       0.000000000   0.228782087   0.749815627
Br       0.000000000   0.771217898   0.250184373
Br       0.500000000   0.728782102   0.750184373
Br       0.500000000   0.271217928   0.249815627
Br       0.000000000   0.186454412   0.942062567
Br       0.000000000   0.813545558   0.057937444
Br       0.500000000   0.686454442   0.557937433
Br       0.500000000   0.313545588   0.442062567
Br       0.000000000   1.022001434   0.690964106
Br       0.000000000  -0.022001407   0.309035864
Br       0.500000000   0.522001404   0.809035894
Br       0.500000000   0.477998566   0.190964136
Br       0.000000000   0.706407472   0.547106263
Br       0.000000000   0.293592498   0.452893707
Br       0.500000000   0.206407487   0.952893737
Br       0.500000000   0.793592528   0.047106286
Br      -0.000000000   0.462118219   0.770680073
Br       0.000000000   0.537881751   0.229319913
Br       0.500000000   0.962118249   0.729319927
Br       0.500000000   0.037881774   0.270680073


K_POINTS automatic
2 2 2 0 0 0
