&control
calculation='scf',
prefix='aucl3',
pseudo_dir='./',
outdir='./'
disk_io = 'none'
/
&system
ibrav=0,
nat=16,
ntyp=2,
ecutwfc=20,
ecutrho=100,
occupations = 'smearing' 
degauss = 0.005
/
&electrons
conv_thr=1.0d-8
/
&ions
/
&cell
/

ATOMIC_SPECIES
Au 1.0 Au.pz-dn-rrkjus_psl.0.1.UPF
Cl 1.0 Cl.pz-n-rrkjus_psl.0.1.UPF

CELL_PARAMETERS {angstrom}
        6.9298129082         0.0000000000         0.0000000000
        0.0000000000        11.9099025726         0.0000000000
       -3.0162073624         0.0000000000         6.4393199244

ATOMIC_POSITIONS {crystal}
Au	     0.277999997         0.583900988         0.960177004
Au	     0.222000003         0.083901003         0.039822999
Au	     0.722000003         0.416099012         0.039822999
Au	     0.777999997         0.916099012         0.960177004
Cl	     0.135787994         0.654237986         0.172405005
Cl	     0.364212006         0.154238001         0.827594995
Cl	     0.864211977         0.345762014         0.827594995
Cl	     0.635788023         0.845762014         0.172405005
Cl	     0.939553976         0.995299995         0.754939020
Cl	     0.560446024         0.495299995         0.245060995
Cl	     0.060446002         0.004700000         0.245060995
Cl	     0.439554006         0.504700005         0.754939020
Cl	     0.515240014         0.835071027         0.677375972
Cl	     0.984759986         0.335070997         0.322623998
Cl	     0.484759986         0.164929003         0.322623998
Cl	     0.015240000         0.664928973         0.677375972

K_POINTS automatic
   11   11   11    0    0    0
