&control
calculation='scf',
prefix='cs3sb',
pseudo_dir='./',
outdir='./'
disk_io = 'none'
/
&system
ibrav=0,
nat=4,
ntyp=2,
ecutwfc=20,
ecutrho=100,
occupations = 'smearing' 
degauss = 0.005
/
&electrons
conv_thr=1.0d-8
/
&ions
/
&cell
/

ATOMIC_SPECIES
Cs 1.0 Cs.pz-sp-hgh.UPF
Sb 1.0 Sb.pz-dn-rrkjus_psl.0.3.1.UPF

CELL_PARAMETERS {angstrom}
        6.6119875908         0.0000000000         0.0000000000
        3.3059937954         5.7261492231         0.0000000000
        3.3059937954         1.9087164077         5.3986652610

ATOMIC_POSITIONS {crystal}
Cs	     0.250000000         0.250000000         0.250000000
Cs	     0.750000000         0.750000000         0.750000000
Cs	     0.500000000         0.500000000         0.500000000
Sb	     0.000000000         0.000000000         0.000000000

K_POINTS automatic
   22   22   22    0    0    0
