&control
calculation='vc-relax',
prefix='bi2ag',
pseudo_dir='./',
outdir='./'
disk_io = 'none'
/
&system
ibrav=0,
nat=12,
ntyp=2,
ecutwfc=80,
ecutrho=400,
occupations = 'smearing' 
degauss = 0.02
/
&electrons
conv_thr=1.0d-8
/
&ions
/
&cell
/

ATOMIC_SPECIES
Bi 1.0 Bi.pbe-dn-rrkjus_psl.0.2.2.UPF
Ag 1.0 Ag.pbe-dn-rrkjus_psl.0.1.UPF

CELL_PARAMETERS (angstrom)
   7.071812869   0.000013913   0.000013913
   0.000013913   7.071812869   0.000013913
   0.000013913   0.000013913   7.071812869

ATOMIC_POSITIONS (crystal)
Bi       0.371631665   0.128369494   0.871631124
Bi       0.128369494   0.871631124   0.371631665
Bi       0.871631124   0.371631665   0.128369494
Bi       0.628367776   0.628367776   0.628367776
Bi       0.371632254   0.371632254   0.371632254
Bi       0.128368854   0.628368365   0.871630484
Bi       0.871630484   0.128368854   0.628368365
Bi       0.628368365   0.871630484   0.128368854
Ag       0.000000000   0.500000000   0.500000000
Ag       0.500000000   0.500000000   0.000000000
Ag       0.500000000   0.000000000   0.500000000
Ag      -0.000000000  -0.000000000  -0.000000000

K_POINTS automatic
23 23 23 0 0 0
