&control
calculation='vc-relax',
prefix='bi6i7',
pseudo_dir='./',
outdir='./'
disk_io = 'none'
/
&system
ibrav=0,
nat=104,
ntyp=2,
ecutwfc=80,
ecutrho=400,
occupations = 'smearing' 
degauss = 0.005
/
&electrons
conv_thr=1.0d-8
/
&ions
/
&cell
/

ATOMIC_SPECIES
Bi 1.0 Bi.pbe-dn-rrkjus_psl.0.2.2.UPF
I 1.0 I.pbe-n-rrkjus_psl.0.2.UPF

CELL_PARAMETERS (angstrom)
   9.112528354   0.000000000   0.000000000
   0.000000000  17.929485317   0.000000000
   0.000000000   0.000000000  28.953943889

ATOMIC_POSITIONS (crystal)
Bi       0.785084221   0.813417994   0.839799982
Bi       0.785084221   0.186582006   0.160200003
Bi       0.714915779   0.313417994   0.660200018
Bi       0.714915779   0.686582006   0.339799982
Bi       0.214915794   0.186582006   0.160200003
Bi       0.214915794   0.813417994   0.839799982
Bi       0.285084191   0.686582006   0.339799982
Bi       0.285084191   0.313417994   0.660200018
Bi       0.812049860   0.761704904   0.951137412
Bi       0.812049860   0.238295081   0.048862566
Bi       0.687950140   0.261704904   0.548862588
Bi       0.687950140   0.738295096   0.451137441
Bi       0.187950140   0.238295081   0.048862566
Bi       0.187950140   0.761704904   0.951137412
Bi       0.312049860   0.738295096   0.451137441
Bi       0.312049860   0.261704904   0.548862588
Bi       0.775117228   0.642672506   0.860342392
Bi       0.775117228   0.357327494   0.139657593
Bi       0.724882772   0.142672491   0.639657608
Bi       0.724882772   0.857327494   0.360342392
Bi       0.224882772   0.357327494   0.139657593
Bi       0.224882772   0.642672506   0.860342392
Bi       0.275117228   0.857327494   0.360342392
Bi       0.275117228   0.142672491   0.639657608
Bi       0.000000000   0.615034707   0.940912287
Bi       0.000000000   0.384965293   0.059087727
Bi       0.500000000   0.115034722   0.559087713
Bi       0.500000000   0.884965293   0.440912287
Bi       0.000000000   0.895410527   0.909761586
Bi       0.000000000   0.104589473   0.090238422
Bi       0.500000000   0.395410527   0.590238414
Bi       0.500000000   0.604589473   0.409761586
Bi       0.000000000   0.708140052   0.785647493
Bi       0.000000000   0.291859978   0.214352492
Bi       0.500000000   0.208140037   0.714352507
Bi       0.500000000   0.791859948   0.285647493
Bi       0.000000000   0.853838578   0.622160941
Bi       0.000000000   0.146161415   0.377839059
Bi       0.500000000   0.353838578   0.877839059
Bi       0.500000000   0.646161422   0.122160934
Bi       0.000000000   0.350131917   0.880269466
Bi       0.000000000   0.649868054   0.119730519
Bi       0.500000000   0.850131946   0.619730534
Bi       0.500000000   0.149868069   0.380269466
Bi       0.000000000   0.536034556   0.579818834
Bi       0.000000000   0.463965415   0.420181166
Bi       0.500000000   0.036034574   0.920181166
Bi       0.500000000   0.963965444   0.079818849
I        0.759935575   0.775380822   0.678022978
I        0.759935575   0.224619163   0.321977022
I        0.740064425   0.275380822   0.821977022
I        0.740064425   0.724619178   0.178022978
I        0.240064425   0.224619163   0.321977022
I        0.240064425   0.775380822   0.678022978
I        0.259935575   0.724619178   0.178022978
I        0.259935575   0.275380822   0.821977022
I        0.755648697   0.531517203   0.649703594
I        0.755648697   0.468482797   0.350296436
I        0.744351303   0.031517196   0.850296406
I        0.744351303   0.968482797   0.149703564
I        0.244351303   0.468482797   0.350296436
I        0.244351303   0.531517203   0.649703594
I        0.255648697   0.968482797   0.149703564
I        0.255648697   0.031517196   0.850296406
I        0.737908427   0.923380949   0.558330994
I        0.737908427   0.076619029   0.441669006
I        0.762091573   0.423380979   0.941669006
I        0.762091573   0.576619051   0.058331002
I        0.262091573   0.076619029   0.441669006
I        0.262091573   0.923380949   0.558330994
I        0.237908412   0.576619051   0.058331002
I        0.237908412   0.423380979   0.941669006
I        0.743336715   0.000000000   0.000000000
I        0.756663285   0.500000000   0.500000000
I        0.256663285   0.000000000   0.000000000
I        0.243336715   0.500000000   0.500000000
I        0.000000000   0.130649339   0.559802768
I        0.000000000   0.869350661   0.440197202
I        0.500000000   0.630649339   0.940197232
I        0.500000000   0.369350661   0.059802787
I        0.000000000   0.360613647   0.586927790
I        0.000000000   0.639386383   0.413072240
I        0.500000000   0.860613617   0.913072210
I        0.500000000   0.139386368   0.086927768
I        0.000000000   0.207688803   0.715084773
I        0.000000000   0.792311182   0.284915227
I        0.500000000   0.707688818   0.784915227
I        0.500000000   0.292311212   0.215084773
I        0.000000000   0.207795085   0.949578262
I        0.000000000   0.792204885   0.050421749
I        0.500000000   0.707795115   0.550421738
I        0.500000000   0.292204915   0.449578262
I        0.000000000   0.985265418   0.682481567
I        0.000000000   0.014734609   0.317518403
I        0.500000000   0.485265388   0.817518433
I        0.500000000   0.514734582   0.182481597
I        0.000000000   0.704484908   0.552427875
I        0.000000000   0.295515062   0.447572095
I        0.500000000   0.204484923   0.947572125
I        0.500000000   0.795515092   0.052427898
I        0.000000000   0.479138364   0.814930335
I        0.000000000   0.520861606   0.185069651
I        0.500000000   0.979138394   0.685069665
I        0.500000000   0.020861629   0.314930335

K_POINTS automatic
2 2 2 0 0 0
