&control
calculation='scf',
prefix='aubr',
pseudo_dir='./',
outdir='./'
disk_io = 'none'
/
&system
ibrav=0,
nat=8,
ntyp=2,
ecutwfc=20,
ecutrho=100,
occupations = 'smearing' 
degauss = 0.005
/
&electrons
conv_thr=1.0d-8
/
&ions
/
&cell
/

ATOMIC_SPECIES
Au 1.0 Au.pz-dn-rrkjus_psl.0.1.UPF
Br 1.0 Br.pz-n-rrkjus_psl.0.2.UPF

CELL_PARAMETERS {angstrom}
        4.3797802925         0.0000000000         0.0000000000
        0.0000000000         4.3797802925         0.0000000000
        0.0000000000         0.0000000000        13.2974042892

ATOMIC_POSITIONS {crystal}
Au	     0.750000000         0.250000000         0.750000000
Au	     0.250000000         0.250000000         0.250000000
Au	     0.750000000         0.750000000         0.250000000
Au	     0.250000000         0.750000000         0.750000000
Br	     0.000000000         0.500000000         0.896803021
Br	     0.000000000         0.500000000         0.396802992
Br	     0.500000000         0.000000000         0.103197001
Br	     0.500000000         0.000000000         0.603196979

K_POINTS automatic
   9   9   9   0   0   0
