&control
calculation='vc-relax',
prefix='cs2cubr3',
pseudo_dir='./',
outdir='./'
disk_io = 'none'
/
&system
ibrav=0,
nat=24,
ntyp=3,
ecutwfc=80,
ecutrho=400,
occupations = 'smearing' 
degauss = 0.005
/
&electrons
conv_thr=1.0d-8
/
&ions
/
&cell
/

ATOMIC_SPECIES
Cs 1.0 Cs.pbe-sp-hgh.UPF
Cu 1.0 Cu.pbe-dn-rrkjus_psl.0.2.UPF
Br 1.0 Br.pbe-n-rrkjus_psl.0.2.UPF

CELL_PARAMETERS {angstrom}
        5.0731310844         0.0000000000         0.0000000000
        0.0000000000        14.9716863632         0.0000000000
        0.0000000000         0.0000000000        15.5724048615

ATOMIC_POSITIONS {crystal}
Cs           0.750000000         0.173895001         0.481896996
Cs           0.250000000         0.826104999         0.518103004
Cs           0.750000000         0.673895001         0.018103000
Cs           0.250000000         0.326104999         0.981896996
Cs           0.750000000         0.512950003         0.675678015
Cs           0.250000000         0.487049997         0.324321985
Cs           0.750000000         0.012950000         0.824321985
Cs           0.250000000         0.987049997         0.175678000
Cu           0.750000000         0.252725989         0.196572006
Cu           0.250000000         0.747273982         0.803427994
Cu           0.750000000         0.752726018         0.303427994
Cu           0.250000000         0.247273996         0.696572006
Br            0.750000000         0.134651005         0.051980000
Br            0.250000000         0.865348995         0.948019981
Br            0.750000000         0.634651005         0.448020011
Br            0.250000000         0.365348995         0.551980019
Br            0.750000000         0.436262995         0.139742002
Br            0.250000000         0.563736975         0.860257983
Br            0.750000000         0.936263025         0.360258013
Br            0.250000000         0.063736998         0.639742017
Br            0.750000000         0.276486993         0.788625002
Br            0.250000000         0.723513007         0.211374998
Br            0.750000000         0.776486993         0.711374998
Br            0.250000000         0.223513007         0.288625002

K_POINTS automatic
3 3 3 0 0 0
