&control
calculation='scf',
prefix='cscubr3',
pseudo_dir='./',
outdir='./'
disk_io = 'none'
/
&system
ibrav=0,
nat=20,
ntyp=3,
ecutwfc=20,
ecutrho=100,
occupations = 'smearing' 
degauss = 0.005
/
&electrons
conv_thr=1.0d-8
/
&ions
/
&cell
/

ATOMIC_SPECIES
Cs 1.0 Cs.pz-sp-hgh.UPF
Cu 1.0 Cu.pz-dn-rrkjus_psl.0.2.UPF
Br 1.0 Br.pz-n-rrkjus_psl.0.2.UPF

CELL_PARAMETERS {angstrom}
        7.5889649391         0.0000000000         0.0000000000
       -3.5406713218         6.7123792681         0.0000000000
        0.0000000000         0.0000000000        13.0597457886

ATOMIC_POSITIONS {crystal}
Cs	     0.011761000         0.011761000         0.000000000
Cs	     0.988238990         0.988238990         0.500000000
Cs	     0.318594009         0.681406021         0.250000000
Cs	     0.681406021         0.318594009         0.750000000
Cu	     0.354676992         0.656364024         0.878265023
Cu	     0.645322978         0.343636006         0.378264993
Cu	     0.656364024         0.354676992         0.121734999
Cu	     0.343636006         0.645322978         0.621734977
Br	     0.472954005         0.935554981         0.518063009
Br	     0.527046025         0.064444996         0.018062999
Br	     0.500379026         0.500379026         0.500000000
Br	     0.499621004         0.499621004         0.000000000
Br	     0.202534005         0.797465980         0.750000000
Br	     0.797465980         0.202534005         0.250000000
Br	     0.191547006         0.333460003         0.712189019
Br	     0.808453023         0.666540027         0.212189004
Br	     0.333460003         0.191547006         0.287811011
Br	     0.666540027         0.808453023         0.787810981
Br	     0.935554981         0.472954005         0.481936991
Br	     0.064444996         0.527046025         0.981936991

K_POINTS automatic
   6   6   6   0   0   0
