&control
calculation='vc-relax',
prefix='cs2aui3',
pseudo_dir='./',
outdir='./'
disk_io = 'none'
/
&system
ibrav=0,
nat=24,
ntyp=3,
ecutwfc=80,
ecutrho=400,
occupations = 'smearing' 
degauss = 0.005
/
&electrons
conv_thr=1.0d-8
/
&ions
/
&cell
/

ATOMIC_SPECIES
Cs 1.0 Cs.pbe-sp-hgh.UPF
Au 1.0 Au.pbe-dn-rrkjus_psl.0.1.UPF
I 1.0 I.pbe-n-rrkjus_psl.0.2.UPF

CELL_PARAMETERS (angstrom)
   4.787665366   0.000000000   0.000000000
   0.000000000  14.013629246   0.000000000
   0.000000000   0.000000000  14.798078967

ATOMIC_POSITIONS (crystal)
Cs       0.750000000   0.176886163   0.483406900
Cs       0.250000000   0.823113837   0.516593100
Cs       0.750000000   0.676886163   0.016593096
Cs       0.250000000   0.323113837   0.983406900
Cs       0.750000000   0.514062885   0.676837686
Cs       0.250000000   0.485937115   0.323162314
Cs       0.750000000   0.014062882   0.823162314
Cs       0.250000000   0.985937115   0.176837671
Au       0.750000000   0.255613975   0.194598582
Au       0.250000000   0.744385996   0.805401418
Au       0.750000000   0.755614004   0.305401418
Au       0.250000000   0.244386010   0.694598582
I        0.750000000   0.132099546   0.048219806
I        0.250000000   0.867900454   0.951780175
I        0.750000000   0.632099546   0.451780205
I        0.250000000   0.367900454   0.548219825
I        0.750000000   0.444164966   0.137351307
I        0.250000000   0.555835004   0.862648678
I        0.750000000   0.944164996   0.362648708
I        0.250000000   0.055835027   0.637351322
I        0.750000000   0.278286385   0.789810053
I        0.250000000   0.721713615   0.210189947
I        0.750000000   0.778286385   0.710189947
I        0.250000000   0.221713615   0.289810053

K_POINTS automatic
3 3 3 0 0 0
