&control
calculation='vc-relax',
prefix='cs3ag2br11',
pseudo_dir='./',
outdir='./'
disk_io = 'none'
/
&system
ibrav=0,
nat=64,
ntyp=3,
ecutwfc=80,
ecutrho=400,
occupations = 'smearing' 
degauss = 0.005
nosym = .TRUE.
/
&electrons
conv_thr=1.0d-8
/
&ions
/
&cell
/
ATOMIC_SPECIES
Cs 1.0 Cs.pbe-sp-hgh.UPF
Ag 1.0 Ag.pbe-dn-rrkjus_psl.0.1.UPF
Br 1.0 Br.pbe-n-rrkjus_psl.0.2.UPF       

CELL_PARAMETERS (angstrom)
   7.737570152   0.000000000  -0.158714058
   0.000000000  16.834931618   0.000000000
  -1.641588283   0.000000000  19.421700197

ATOMIC_POSITIONS (crystal)
Cs       0.259605277   0.627959365   0.928462064
Cs       0.259605277   0.872040635   0.428462064
Cs       0.740041395   0.016379736   0.104223170
Cs       0.740041395   0.483620260   0.604223192
Cs       0.259958605   0.516379710   0.395776838
Cs       0.748675238   0.774332554   0.679461819
Cs       0.748675238   0.725667446   0.179461834
Cs       0.740394693   0.127959365   0.571537936
Cs       0.259958605   0.983620290   0.895776808
Cs       0.251324732   0.274332554   0.820538181
Cs       0.740394693   0.372040635   0.071537951
Cs       0.251324732   0.225667431   0.320538181
Ag       0.246398387   0.310555379   0.561460903
Ag       0.247390637   0.497846720   0.167242391
Ag       0.752609378   0.997846720   0.332757623
Ag       0.752609378   0.502153280   0.832757623
Ag       0.247390637   0.002153291   0.667242377
Ag       0.753601613   0.689444621   0.438539067
Ag       0.753601613   0.810555379   0.938539097
Ag       0.246398387   0.189444636   0.061460933
Br       0.613569578   0.199475206   0.209479074
Br       0.244025254   0.162632575   0.540822679
Br       0.082697274   0.844909208   0.077714467
Br       0.017653329   0.568262882   0.089358841
Br       0.989561394   0.798763844   0.860328563
Br       0.982346687   0.068262859   0.410641159
Br       0.477581757   0.944246636   0.600375434
Br       0.767086764   0.541911626   0.421117533
Br       0.017653329   0.931737118   0.589358871
Br       0.489288454   0.172437633   0.986442660
Br       0.018593996   0.441070163   0.234049548
Br       0.235936115   0.726365064   0.683982054
Br       0.981405998   0.941070163   0.265950452
Br       0.386430392   0.699475191   0.290520941
Br       0.767086764   0.958088374   0.921117503
Br       0.235936115   0.773634936   0.183982084
Br       0.018593996   0.058929845   0.734049548
Br       0.474863906   0.427772075   0.245847168
Br       0.989561394   0.701236156   0.360328563
Br       0.525136124   0.927772105   0.254152832
Br       0.082697274   0.655090792   0.577714459
Br       0.489288454   0.327562382   0.486442690
Br       0.010438624   0.298763844   0.639671437
Br       0.510711546   0.827562382   0.013557315
Br       0.764063885   0.226365079   0.816017946
Br       0.477581757   0.555753364   0.100375419
Br       0.755974776   0.662632605   0.959177321
Br       0.510711546   0.672437618   0.513557340
Br       0.981405998   0.558929837   0.765950452
Br       0.917302703   0.344909208   0.422285541
Br       0.010438624   0.201236171   0.139671452
Br       0.613569578   0.300524809   0.709479089
Br       0.386430392   0.800524809   0.790520911
Br       0.232913236   0.041911597   0.078882467
Br       0.755974776   0.837367395   0.459177351
Br       0.522418213   0.055753349   0.399624596
Br       0.764063885   0.273634936   0.316017916
Br       0.982346687   0.431737148   0.910641129
Br       0.232913236   0.458088403   0.578882497
Br       0.522418213   0.444246666   0.899624566
Br       0.917302703   0.155090807   0.922285541
Br       0.244025254   0.337367425   0.040822649
Br       0.474863906   0.072227917   0.745847168
Br       0.525136124   0.572227895   0.754152832

K_POINTS automatic
2 2 2 0 0 0
