&control
calculation='vc-relax',
prefix='cs5sb8',
pseudo_dir='./',
outdir='./'
disk_io = 'none'
/
&system
ibrav=0,
nat=52,
ntyp=2,
ecutwfc=80,
ecutrho=400,
occupations = 'smearing' 
degauss = 0.005
/
&electrons
conv_thr=1.0d-8
/
&ions
/
&cell
/

ATOMIC_SPECIES
Cs 1.0 Cs.pbe-sp-hgh.UPF
Sb 1.0 Sb.pbe-dn-rrkjus_psl.0.3.1.UPF

CELL_PARAMETERS (angstrom)
   7.446762822   0.000000000  -0.007692800
   0.000000000  11.635320027   0.000000000
  -3.288375880   0.000000000  28.020489385

ATOMIC_POSITIONS (crystal)
Cs       0.474741704   0.570079331   0.574170514
Cs       0.742922048   0.396558190   0.021285369
Cs       0.235952432   0.808095493   0.310362562
Cs       0.257077922   0.603441780   0.978714640
Cs       0.712684071   0.536779807   0.742159482
Cs       0.764047568   0.191904492   0.689637409
Cs       0.975225636   0.813952018   0.622720606
Cs       0.712684071   0.963220193   0.242159467
Cs       0.975225636   0.686047982   0.122720576
Cs       0.235952432   0.691904507   0.810362591
Cs       0.024774374   0.186047996   0.377279424
Cs       0.024774374   0.313952018   0.877279394
Cs       0.287315900   0.463220193   0.257840518
Cs       0.764047568   0.308095493   0.189637438
Cs       0.474741704   0.929920669   0.074170499
Cs       0.742922048   0.103441802   0.521285360
Cs       0.525258296   0.429920669   0.425829516
Cs       0.257077922   0.896558220   0.478714640
Cs       0.525258296   0.070079331   0.925829486
Cs       0.287315900   0.036779818   0.757840518
Sb       0.485914945   0.699202495   0.183527045
Sb       0.761821635   0.752279116   0.475895800
Sb       0.304752062   0.142437418   0.162953056
Sb       0.193677511   0.129483115   0.256075974
Sb       0.808864722   0.638923792   0.887118578
Sb       0.012819702   0.524395187   0.374537292
Sb       0.695247967   0.642437418   0.337046929
Sb       0.061324622   0.596905428   0.472391511
Sb       0.514085055   0.199202466   0.316472955
Sb       0.012819702   0.975604813   0.874537292
Sb       0.191135308   0.138923777   0.612881422
Sb       0.485914945   0.800797505   0.683527075
Sb       0.193677511   0.370516885   0.756075944
Sb       0.514085055   0.300797534   0.816472925
Sb       0.987180317   0.475604843   0.625462708
Sb       0.531376845   0.038536585   0.391450781
Sb       0.238178365   0.252279146   0.024104203
Sb       0.238178365   0.247720854   0.524104200
Sb       0.808864722   0.861076208   0.387118578
Sb       0.695247967   0.857562582   0.837046959
Sb       0.806322519   0.629483085   0.243924026
Sb       0.806322519   0.870516915   0.743924056
Sb       0.938675352   0.403094572   0.527608489
Sb       0.531376845   0.461463419   0.891450811
Sb       0.061324622   0.903094572   0.972391511
Sb       0.468623125   0.538536581   0.108549211
Sb       0.987180317   0.024395169   0.125462693
Sb       0.938675352   0.096905435   0.027608485
Sb       0.191135308   0.361076238   0.112881422
Sb       0.468623125   0.961463419   0.608549189
Sb       0.761821635   0.747720884   0.975895800
Sb       0.304752062   0.357562582   0.662953041

K_POINTS automatic
8 8 8 0 0 0
