&control
calculation='vc-relax',
prefix='cs5sb8',
pseudo_dir='./',
outdir='./'
disk_io = 'none'
/
&system
ibrav=0,
nat=52,
ntyp=2,
ecutwfc=80,
ecutrho=400,
occupations = 'smearing' 
degauss = 0.005
/
&electrons
conv_thr=1.0d-8
/
&ions
/
&cell
/

ATOMIC_SPECIES
Cs 1.0 Cs.pbe-sp-hgh.UPF
Sb 1.0 Sb.pbe-dn-rrkjus_psl.0.3.1.UPF

CELL_PARAMETERS (angstrom)
   7.423195681   0.000000000  -0.015759774
   0.000000000  11.619282939   0.000000000
  -3.308299918   0.000000000  28.034999611

ATOMIC_POSITIONS (crystal)
Cs       0.471620550   0.568843656   0.574610471
Cs       0.743353688   0.396075289   0.021220426
Cs       0.235587468   0.808977460   0.311118852
Cs       0.256646282   0.603924681   0.978779583
Cs       0.711244555   0.537184041   0.741763908
Cs       0.764412532   0.191022525   0.688881119
Cs       0.976621112   0.814070799   0.623418830
Cs       0.711244555   0.962815959   0.241763893
Cs       0.976621112   0.685929201   0.123418800
Cs       0.235587468   0.691022540   0.811118881
Cs       0.023378898   0.185929215   0.376581200
Cs       0.023378898   0.314070799   0.876581170
Cs       0.288755416   0.462815959   0.258236092
Cs       0.764412532   0.308977460   0.188881148
Cs       0.471620550   0.931156344   0.074610456
Cs       0.743353688   0.103924703   0.521220417
Cs       0.528379450   0.431156344   0.425389559
Cs       0.256646282   0.896075319   0.478779583
Cs       0.528379450   0.068843656   0.925389529
Cs       0.288755416   0.037184052   0.758236092
Sb       0.487147915   0.698122011   0.183326106
Sb       0.762754047   0.752506481   0.476090646
Sb       0.304888365   0.142818887   0.163336148
Sb       0.190683817   0.129640701   0.255931913
Sb       0.809539914   0.638924875   0.887297904
Sb       0.012678880   0.523559997   0.374471375
Sb       0.695111664   0.642818887   0.336663837
Sb       0.062421338   0.596342603   0.472267590
Sb       0.512852085   0.198121982   0.316673894
Sb       0.012678880   0.976440003   0.874471375
Sb       0.190460116   0.138924860   0.612702096
Sb       0.487147915   0.801877989   0.683326136
Sb       0.190683817   0.370359299   0.755931883
Sb       0.512852085   0.301878018   0.816673864
Sb       0.987321139   0.476440033   0.625528625
Sb       0.531074436   0.038070906   0.391880801
Sb       0.237245953   0.252506511   0.023909357
Sb       0.237245953   0.247493489   0.523909354
Sb       0.809539914   0.861075125   0.387297904
Sb       0.695111664   0.857181113   0.836663867
Sb       0.809316213   0.629640671   0.244068087
Sb       0.809316213   0.870359329   0.744068117
Sb       0.937578636   0.403657397   0.527732410
Sb       0.531074436   0.461929098   0.891880831
Sb       0.062421338   0.903657397   0.972267590
Sb       0.468925534   0.538070902   0.108119191
Sb       0.987321139   0.023559979   0.125528610
Sb       0.937578636   0.096342610   0.027732406
Sb       0.190460116   0.361075155   0.112702096
Sb       0.468925534   0.961929098   0.608119169
Sb       0.762754047   0.747493519   0.976090646
Sb       0.304888365   0.357181113   0.663336133

K_POINTS automatic
8 8 8 0 0 0
