&control
calculation='vc-relax',
prefix='cs2cucl3',
pseudo_dir='./',
outdir='./'
disk_io = 'none'
/
&system
ibrav=0,
nat=24,
ntyp=3,
ecutwfc=80,
ecutrho=400,
occupations = 'smearing' 
degauss = 0.005
/
&electrons
conv_thr=1.0d-8
/
&ions
/
&cell
/

ATOMIC_SPECIES
Cs 1.0 Cs.pz-sp-hgh.UPF
Cu 1.0 Cu.pz-dn-rrkjus_psl.0.2.UPF
Cl 1.0 Cl.pz-n-rrkjus_psl.0.1.UPF

CELL_PARAMETERS (angstrom)
   4.225268980   0.000000000   0.000000000
   0.000000000  12.817519289   0.000000000
   0.000000000   0.000000000  13.038669142

ATOMIC_POSITIONS (crystal)
Cs       0.750000000   0.176588884   0.481411777
Cs       0.250000000   0.823411116   0.518588223
Cs       0.750000000   0.676588884   0.018588219
Cs       0.250000000   0.323411116   0.981411777
Cs       0.750000000   0.511664864   0.677634023
Cs       0.250000000   0.488335136   0.322365977
Cs       0.750000000   0.011664861   0.822365977
Cs       0.250000000   0.988335136   0.177634008
Cu       0.750000000   0.255745329   0.194144090
Cu       0.250000000   0.744254642   0.805855910
Cu       0.750000000   0.755745358   0.305855910
Cu       0.250000000   0.244254656   0.694144090
Cl       0.750000000   0.139522788   0.062527904
Cl       0.250000000   0.860477212   0.937472077
Cl       0.750000000   0.639522788   0.437472107
Cl       0.250000000   0.360477212   0.562527923
Cl       0.750000000   0.424067704   0.146827512
Cl       0.250000000   0.575932266   0.853172473
Cl       0.750000000   0.924067734   0.353172503
Cl       0.250000000   0.075932289   0.646827527
Cl       0.750000000   0.270654528   0.774499893
Cl       0.250000000   0.729345472   0.225500107
Cl       0.750000000   0.770654528   0.725500107
Cl       0.250000000   0.229345472   0.274499893

K_POINTS automatic
3 3 3 0 0 0
