&control
calculation='scf',
prefix='cs3au2br11',
pseudo_dir='./',
outdir='./'
disk_io = 'none'
/
&system
ibrav=0,
nat=64,
ntyp=3,
ecutwfc=20,
ecutrho=100,
occupations = 'smearing' 
degauss = 0.005
/
&electrons
conv_thr=1.0d-8
/
&ions
/
&cell
/

ATOMIC_SPECIES
Cs 1.0 Cs.pz-sp-hgh.UPF
Au 1.0 Au.pz-dn-rrkjus_psl.0.1.UPF
Br 1.0 Br.pz-n-rrkjus_psl.0.2.UPF

CELL_PARAMETERS {angstrom}
        7.8889713287         0.0000000000         0.0000000000
        0.0000000000        16.9186973572         0.0000000000
       -1.2910736314         0.0000000000        19.1810147697

ATOMIC_POSITIONS {crystal}
Cs	     0.253412992         0.631558001         0.923842013
Cs	     0.253412992         0.868441999         0.423842013
Cs	     0.765239000         0.024367001         0.099092998
Cs	     0.765239000         0.475632995         0.599093020
Cs	     0.234761000         0.524366975         0.400907010
Cs	     0.742299974         0.776113987         0.673763990
Cs	     0.742299974         0.723886013         0.173764005
Cs	     0.746586978         0.131558001         0.576157987
Cs	     0.234761000         0.975633025         0.900906980
Cs	     0.257699996         0.276113987         0.826236010
Cs	     0.746586978         0.368441999         0.076158002
Cs	     0.257699996         0.223885998         0.326236010
Au	     0.263604999         0.311482012         0.565078974
Au	     0.243525997         0.497770011         0.169051006
Au	     0.756474018         0.997770011         0.330949008
Au	     0.756474018         0.502229989         0.830949008
Au	     0.243525997         0.002230000         0.669050992
Au	     0.736395001         0.688517988         0.434920996
Au	     0.736395001         0.811482012         0.934921026
Au	     0.263604999         0.188518003         0.065079004
Br	     0.614373982         0.202267006         0.210299000
Br	     0.260345012         0.167302996         0.540813029
Br	     0.071084000         0.832197011         0.074501999
Br	     0.022653000         0.563036025         0.090775996
Br	     0.967315018         0.795691013         0.854564011
Br	     0.977347016         0.063036002         0.409224004
Br	     0.467965990         0.947880983         0.597764015
Br	     0.737744987         0.544166028         0.411998004
Br	     0.022653000         0.936963975         0.590776026
Br	     0.496899009         0.171246007         0.985795975
Br	     0.019553000         0.442218006         0.238620996
Br	     0.230123997         0.731348991         0.682443976
Br	     0.980446994         0.942218006         0.261379004
Br	     0.385625988         0.702266991         0.289701015
Br	     0.737744987         0.955833972         0.911997974
Br	     0.230123997         0.768651009         0.182444006
Br	     0.019553000         0.057782002         0.738620996
Br	     0.462258011         0.432132989         0.247566998
Br	     0.967315018         0.704308987         0.354564011
Br	     0.537742019         0.932133019         0.252433002
Br	     0.071084000         0.667802989         0.574501991
Br	     0.496899009         0.328754008         0.485796005
Br	     0.032685000         0.295691013         0.645435989
Br	     0.503100991         0.828754008         0.014204000
Br	     0.769876003         0.231349006         0.817556024
Br	     0.467965990         0.552119017         0.097764000
Br	     0.739655018         0.667303026         0.959186971
Br	     0.503100991         0.671245992         0.514204025
Br	     0.980446994         0.557781994         0.761379004
Br	     0.928915977         0.332197011         0.425498009
Br	     0.032685000         0.204309002         0.145436004
Br	     0.614373982         0.297733009         0.710299015
Br	     0.385625988         0.797733009         0.789700985
Br	     0.262255013         0.044165999         0.088001996
Br	     0.739655018         0.832696974         0.459187001
Br	     0.532033980         0.052119002         0.402236015
Br	     0.769876003         0.268651009         0.317555994
Br	     0.977347016         0.436964005         0.909223974
Br	     0.262255013         0.455834001         0.588002026
Br	     0.532033980         0.447881013         0.902235985
Br	     0.928915977         0.167803004         0.925498009
Br	     0.260345012         0.332697004         0.040812999
Br	     0.462258011         0.067867003         0.747566998
Br	     0.537742019         0.567866981         0.752433002

K_POINTS automatic
   2   2   2   0   0   0
