&control
        calculation='nscf'
        restart_mode='from_scratch'
        prefix='CH3NH3'
        outdir='./'
        tstress=.false.
        tprnfor=.false.
        pseudo_dir='../pp/'
        nstep=500
        forc_conv_thr=1e-5
        etot_conv_thr=1e-6
        wf_collect   = .true. 
/
&system
  ibrav=0
  nat=48
  ntyp=5
  ecutwfc=100
  lspinorb = .true.
  noncolin = .true.
  nbnd = 300  !256
  nosym = .true.
/
&electrons
        diagonalization='david'
        mixing_mode='plain'
        mixing_beta=0.7
        conv_thr=1e-9
/
ATOMIC_SPECIES
C 12.011 C.rel-pz-n-oncv_dojo.upf
N 14.007 N.rel-pz-n-oncv_dojo.upf
H  1.008 H.rel-pz-oncv_dojo.upf
Pb 207.2 Pb-LDA-core.upf
I 126.905 I.rel-pz-n-oncv_dojo.upf

K_POINTS crystal
64
  0.00000000  0.00000000  0.00000000  1.562500e-02 
  0.00000000  0.00000000  0.25000000  1.562500e-02 
  0.00000000  0.00000000  0.50000000  1.562500e-02 
  0.00000000  0.00000000  0.75000000  1.562500e-02 
  0.00000000  0.25000000  0.00000000  1.562500e-02 
  0.00000000  0.25000000  0.25000000  1.562500e-02 
  0.00000000  0.25000000  0.50000000  1.562500e-02 
  0.00000000  0.25000000  0.75000000  1.562500e-02 
  0.00000000  0.50000000  0.00000000  1.562500e-02 
  0.00000000  0.50000000  0.25000000  1.562500e-02 
  0.00000000  0.50000000  0.50000000  1.562500e-02 
  0.00000000  0.50000000  0.75000000  1.562500e-02 
  0.00000000  0.75000000  0.00000000  1.562500e-02 
  0.00000000  0.75000000  0.25000000  1.562500e-02 
  0.00000000  0.75000000  0.50000000  1.562500e-02 
  0.00000000  0.75000000  0.75000000  1.562500e-02 
  0.25000000  0.00000000  0.00000000  1.562500e-02 
  0.25000000  0.00000000  0.25000000  1.562500e-02 
  0.25000000  0.00000000  0.50000000  1.562500e-02 
  0.25000000  0.00000000  0.75000000  1.562500e-02 
  0.25000000  0.25000000  0.00000000  1.562500e-02 
  0.25000000  0.25000000  0.25000000  1.562500e-02 
  0.25000000  0.25000000  0.50000000  1.562500e-02 
  0.25000000  0.25000000  0.75000000  1.562500e-02 
  0.25000000  0.50000000  0.00000000  1.562500e-02 
  0.25000000  0.50000000  0.25000000  1.562500e-02 
  0.25000000  0.50000000  0.50000000  1.562500e-02 
  0.25000000  0.50000000  0.75000000  1.562500e-02 
  0.25000000  0.75000000  0.00000000  1.562500e-02 
  0.25000000  0.75000000  0.25000000  1.562500e-02 
  0.25000000  0.75000000  0.50000000  1.562500e-02 
  0.25000000  0.75000000  0.75000000  1.562500e-02 
  0.50000000  0.00000000  0.00000000  1.562500e-02 
  0.50000000  0.00000000  0.25000000  1.562500e-02 
  0.50000000  0.00000000  0.50000000  1.562500e-02 
  0.50000000  0.00000000  0.75000000  1.562500e-02 
  0.50000000  0.25000000  0.00000000  1.562500e-02 
  0.50000000  0.25000000  0.25000000  1.562500e-02 
  0.50000000  0.25000000  0.50000000  1.562500e-02 
  0.50000000  0.25000000  0.75000000  1.562500e-02 
  0.50000000  0.50000000  0.00000000  1.562500e-02 
  0.50000000  0.50000000  0.25000000  1.562500e-02 
  0.50000000  0.50000000  0.50000000  1.562500e-02 
  0.50000000  0.50000000  0.75000000  1.562500e-02 
  0.50000000  0.75000000  0.00000000  1.562500e-02 
  0.50000000  0.75000000  0.25000000  1.562500e-02 
  0.50000000  0.75000000  0.50000000  1.562500e-02 
  0.50000000  0.75000000  0.75000000  1.562500e-02 
  0.75000000  0.00000000  0.00000000  1.562500e-02 
  0.75000000  0.00000000  0.25000000  1.562500e-02 
  0.75000000  0.00000000  0.50000000  1.562500e-02 
  0.75000000  0.00000000  0.75000000  1.562500e-02 
  0.75000000  0.25000000  0.00000000  1.562500e-02 
  0.75000000  0.25000000  0.25000000  1.562500e-02 
  0.75000000  0.25000000  0.50000000  1.562500e-02 
  0.75000000  0.25000000  0.75000000  1.562500e-02 
  0.75000000  0.50000000  0.00000000  1.562500e-02 
  0.75000000  0.50000000  0.25000000  1.562500e-02 
  0.75000000  0.50000000  0.50000000  1.562500e-02 
  0.75000000  0.50000000  0.75000000  1.562500e-02 
  0.75000000  0.75000000  0.00000000  1.562500e-02 
  0.75000000  0.75000000  0.25000000  1.562500e-02 
  0.75000000  0.75000000  0.50000000  1.562500e-02 
  0.75000000  0.75000000  0.75000000  1.562500e-02

CELL_PARAMETERS {angstrom}
8.836406  0.0        0.0
0.0       12.580725  0.0
0.0       0.0        8.555305

ATOMIC_POSITIONS (angstrom)
Pb       0.010080631   0.004343718   4.267913637
Pb       4.426500183   0.003499757   0.009043736
Pb      -0.010065548   6.294612641   4.287671778
Pb       4.409666094   6.293604885  -0.009039366
I        4.273468755   3.150509750   7.981623548
I        0.143512927   9.442434080   3.703107736
I        4.563092401   9.441048032   0.573746318
I        8.693100772   3.151407991   4.852182022
I        1.660236384   0.298586785   1.552685520
I        2.747830724  12.295999948   5.855761703
I        7.176128446   6.588773154   7.002748059
I        6.088302878   6.005665259   2.699329050
I        7.164483506  12.299382251   6.971768613
I        6.078059717   0.293090690   2.722029352
I        1.672180785   6.008960362   1.583127711
I        2.758429332   6.583371643   5.833303997
N        4.969301879   3.167142843   4.456127862
N        8.284724530   9.463643743   8.732038204
N        3.867083202   9.457461769   4.099172929
N        0.551626511   3.173339790   8.378489291
C        3.656739792   3.110291431   3.805892502
C        0.765932178   9.409856644   8.092080258
C        5.179646332   9.400684311   4.749391878
C        8.070471037   3.119476009   0.463281637
H        3.077013165   4.001929760   4.083094970
H        3.131425385   2.201031290   4.131437116
H        3.796237616   3.083728070   2.715612524
H        5.548109276   2.342516687   4.170095706
H        4.881113018   3.171780897   5.500586857
H        5.484076898   4.029835461   4.155259689
H        1.341884609  10.301995589   8.375284220
H        1.289571062   8.501893765   8.423059317
H        0.636385067   9.382779216   7.000417161
H        7.709784358   8.638390632   8.439323387
H        8.364884779   9.467445807   1.221993302
H        7.770930320  10.325397900  -0.127978337
H        5.759336444  10.292380093   4.472216685
H        5.705074722   8.491493483   4.423792995
H        5.040031452   9.374345253   5.839626558
H        3.288286704   8.632730082   4.385140914
H        3.955383657   9.462037408   3.054783730
H        3.352246183  10.320106532   4.400087061
H        7.494519868   4.011615109   8.735317585
H        7.546896059   2.211491082   0.132367570
H        8.199899245   3.092144311   1.554974405
H        1.126601852   2.348151148   0.116014783
H        0.471607870   3.177207166   7.333194718
H        1.065416942   4.035065774   8.683189109

