&control
calculation='vc-relax',
prefix='sbcl',
pseudo_dir='./',
outdir='./'
disk_io = 'none'
/
&system
ibrav=0,
nat=16,
ntyp=2,
ecutwfc=80,
ecutrho=400,
occupations = 'smearing' 
degauss = 0.005
/
&electrons
conv_thr=1.0d-8
/
&ions
/
&cell
/

ATOMIC_SPECIES
Sb 1.0 Sb.pbe-dn-rrkjus_psl.0.3.1.UPF
Cl 1.0 Cl.pbe-n-rrkjus_psl.0.1.UPF

CELL_PARAMETERS (angstrom)
   6.841730827   0.196503431   0.089322836
  -5.663411674   3.843537441  -0.089307350
  -5.748924570   1.676710878  18.766943097

ATOMIC_POSITIONS (crystal)
Sb       0.833027491   0.166961170   0.005178384
Sb       0.166972509   0.833038830   0.994821609
Sb       0.827600162   0.172394271   0.493012279
Sb       0.799883110   0.200115708   0.846727654
Sb       0.200116920   0.799884322   0.153272331
Sb       0.172399823   0.827605714   0.506987691
Sb       0.935133894   0.064865179   0.651770655
Sb       0.064866092   0.935134807   0.348229375
Cl       0.860694461   0.139291311   0.187365832
Cl       0.567982836   0.432015992   0.622159201
Cl       0.540639021   0.459371469   0.114111269
Cl       0.459360979   0.540628531   0.885888746
Cl       0.432017134   0.567983978   0.377840829
Cl       0.308695174   0.691310605   0.689319493
Cl       0.691304796   0.308689365   0.310680507
Cl       0.139305524   0.860708674   0.812634153

K_POINTS automatic
5 10 5 0 0 0
