&control
calculation='vc-relax',
prefix='cs3au2br5',
pseudo_dir='./',
outdir='./'
disk_io = 'none'
/
&system
ibrav=0,
nat=40,
ntyp=3,
ecutwfc=80,
ecutrho=400,
occupations = 'smearing' 
degauss = 0.005
/
&electrons
conv_thr=1.0d-8
/
&ions
/
&cell
/

ATOMIC_SPECIES
Cs 1.0 Cs.pbe-sp-hgh.UPF
Au 1.0 Au.pbe-dn-rrkjus_psl.0.1.UPF
Br 1.0 Br.pbe-n-rrkjus_psl.0.2.UPF

CELL_PARAMETERS (angstrom)
  10.134677008  -0.000057107  -0.000019665
  -0.000063308  11.709983145  -0.000000118
  -0.000024842  -0.000000127  14.835308416

ATOMIC_POSITIONS (crystal)
Cs       0.544493549   0.951263035   0.810867123
Cs       0.044490920   0.548733485   0.689140960
Cs       0.455510617   0.451266097   0.189134563
Cs       0.955504839   0.048736430   0.310860973
Cs       0.455506451   0.048736951   0.189132862
Cs       0.955509088   0.451266515   0.310859040
Cs       0.544489383   0.548733903   0.810865422
Cs       0.044495169   0.951263556   0.689139027
Cs       0.908102015   0.750003072   0.038785444
Cs       0.408097617   0.750003106   0.461217532
Cs       0.091897955   0.249996928   0.961214582
Cs       0.591902413   0.249996894   0.538782438
Au       0.787503468   0.250000524   0.084915092
Au       0.353702979   0.749999127   0.104254228
Au       0.853699784   0.749999136   0.395749051
Au       0.646297021   0.250000873   0.895745790
Au       0.146300216   0.250000864   0.604250919
Au       0.212496503   0.749999476   0.915084938
Au       0.712503429   0.749999475   0.584909473
Au       0.287496585   0.250000525   0.415090497
Br       0.326749817   0.750000695   0.694850611
Br       0.826745947   0.750000872   0.805141738
Br       0.673250213   0.249999305   0.305149419
Br       0.173254038   0.249999128   0.194858247
Br       0.948840083   0.249997439   0.510215781
Br       0.175894537   0.750000899   0.215000823
Br       0.448842995   0.249997232   0.989783043
Br       0.051159944   0.750002561   0.489784190
Br       0.551156975   0.750002768   0.010216977
Br       0.324110161   0.249999137   0.715003165
Br       0.824105478   0.249999101   0.784999162
Br       0.675889839   0.750000863   0.284996865
Br       0.704401058   0.540586374   0.583200397
Br       0.204400391   0.959412624   0.916804131
Br       0.295600859   0.040586709   0.416800617
Br       0.795597610   0.459413025   0.083196745
Br       0.295598942   0.459413656   0.416799603
Br       0.795599609   0.040587346   0.083195861
Br       0.704399141   0.959413261   0.583199383
Br       0.204402390   0.540587005   0.916803247

K_POINTS automatic
2 2 2 0 0 0
