&control
calculation='scf',
prefix='bi9i2',
pseudo_dir='./',
outdir='./'
disk_io = 'none'
/
&system
ibrav=0,
nat=22,
ntyp=2,
ecutwfc=20,
ecutrho=100,
occupations = 'smearing' 
degauss = 0.005
/
&electrons
conv_thr=1.0d-8
/
&ions
/
&cell
/

ATOMIC_SPECIES
Bi 1.0 Bi.pz-dn-rrkjus_psl.0.2.2.UPF
I 1.0 I.pz-n-rrkjus_psl.0.2.UPF

CELL_PARAMETERS {angstrom}
       13.5280208588         0.0000000000         0.0000000000
        0.0000000000         4.4843692780         0.0000000000
       -6.5228052365         0.0000000000        14.0032360777

ATOMIC_POSITIONS {crystal}
Bi	     0.503988981         0.250000000         0.333252996
Bi	     0.496010989         0.750000000         0.666746974
Bi	     0.614557028         0.250000000         0.810307980
Bi	     0.385443002         0.750000000         0.189692006
Bi	     0.805947006         0.250000000         0.750928998
Bi	     0.194052994         0.750000000         0.249071002
Bi	     0.073739998         0.250000000         0.106817998
Bi	     0.926259995         0.750000000         0.893181980
Bi	     0.876807988         0.250000000         0.161275998
Bi	     0.123191997         0.750000000         0.838724017
Bi	     0.240566000         0.250000000         0.981725991
Bi	     0.759433985         0.750000000         0.018274000
Bi	     0.439139992         0.250000000         0.929422975
Bi	     0.560859978         0.750000000         0.070577003
Bi	     0.301275015         0.750000000         0.719617009
Bi	     0.698724985         0.250000000         0.280382991
Bi	     0.816892028         0.750000000         0.427224994
Bi	     0.183108002         0.250000000         0.572775006
I	     0.663213015         0.750000000         0.533788025
I	     0.336786985         0.250000000         0.466212004
I	     0.013663000         0.750000000         0.372913003
I	     0.986337006         0.250000000         0.627086997

K_POINTS automatic
   9   9   9   0   0   0
