&control
calculation='scf',
prefix='csagbr2',
pseudo_dir='./',
outdir='./'
disk_io = 'none'
/
&system
ibrav=0,
nat=8,
ntyp=3,
ecutwfc=20,
ecutrho=100,
occupations = 'smearing' 
degauss = 0.005
/
&electrons
conv_thr=1.0d-8
/
&ions
/
&cell
/

ATOMIC_SPECIES
Cs 1.0 Cs.pz-sp-hgh.UPF
Ag 1.0 Ag.pz-dn-rrkjus_psl.0.1.UPF
Br 1.0 Br.pz-n-rrkjus_psl.0.2.UPF

CELL_PARAMETERS {angstrom}
        5.3699283600         0.0000000000         0.0000000000
        0.0000000000         5.3699283600         0.0000000000
        0.0000000000         0.0000000000        10.43071556090

ATOMIC_POSITIONS {crystal}
Cs     0.000000000         0.500000000         0.706757009
Cs     0.500000000         0.000000000         0.293242991
Ag     0.000000000         0.500000000         0.099959999
Ag     0.500000000         0.000000000         0.900039971
Br     0.500000000         0.500000000         0.000000000
Br     0.000000000         0.500000000         0.355075985
Br     0.500000000         0.000000000         0.644923985
Br     0.000000000         0.000000000         0.000000000

K_POINTS automatic
   2   2   2   0   0   0
