&control
calculation='vc-relax',
prefix='bicl5',
pseudo_dir='./',
outdir='./'
disk_io = 'none'
/
&system
ibrav=0,
nat=12,
ntyp=2,
ecutwfc=80,
ecutrho=400,
occupations = 'smearing' 
degauss = 0.005
nosym = .TRUE.
/
&electrons
conv_thr=1.0d-8
/
&ions
/
&cell
/

ATOMIC_SPECIES
Bi 1.0 Bi.pbe-dn-rrkjus_psl.0.2.2.UPF
Cl 1.0 Cl.pbe-n-rrkjus_psl.0.1.UPF

CELL_PARAMETERS (angstrom)
   7.566656479  -0.000003950  -0.000000000
  -3.783331660   6.552914757  -0.000000000
   0.000000000   0.000000000   7.923337731

ATOMIC_POSITIONS (crystal)
Bi       0.666666985   0.333332986   0.250000000
Bi       0.333332986   0.666666985   0.750000000
Cl       0.284037374   0.142018688   0.250000000
Cl       0.142018686   0.857981329   0.750000000
Cl       0.333332986   0.666666985   0.069354392
Cl       0.666666985   0.333332986   0.569354411
Cl       0.666666985   0.333332986   0.930645589
Cl       0.333332986   0.666666985   0.430645619
Cl       0.715962656   0.857981327   0.750000000
Cl       0.857981329   0.142018686   0.250000000
Cl       0.857981327   0.715962656   0.250000000
Cl       0.142018688   0.284037374   0.750000000

K_POINTS automatic
7 7 7 0 0 0
