&control
calculation='vc-relax',
prefix='cs2sbagi6',
pseudo_dir='./',
outdir='./'
disk_io = 'none'
/
&system
ibrav=0,
nat=10,
ntyp=4,
ecutwfc=80,
ecutrho=400,
occupations = 'smearing' 
degauss = 0.005
/
&electrons
conv_thr=1.0d-8
/
&ions
/
&cell
/

ATOMIC_SPECIES
Cs 1.0 Cs.pbe-sp-hgh.UPF
Sb 1.0 Sb.pbe-dn-rrkjus_psl.0.3.1.UPF
Ag 1.0 Ag.pbe-dn-rrkjus_psl.0.1.UPF
I 1.0 I.pbe-n-rrkjus_psl.0.2.UPF

CELL_PARAMETERS (angstrom)
   5.820853862   0.000000000   5.820853862
   5.820853862   5.820853862   0.000000000
   0.000000000   5.820853862   5.820853862

ATOMIC_POSITIONS (crystal)
Sb       0.000000000  -0.000000000  -0.000000000
Ag       0.500000000   0.500000000   0.500000000
I        0.745496540   0.254503430   0.745496540
I        0.254503460   0.745496540   0.254503460
I        0.745496540   0.254503460   0.254503460
I        0.254503430   0.745496540   0.745496540
I        0.745496540   0.745496540   0.254503430
I        0.254503460   0.254503460   0.745496540
Cs       0.250000000   0.250000000   0.250000000
Cs       0.749999940   0.749999940   0.749999940

K_POINTS automatic
12 12 12 0 0 0
