&control
calculation='scf',
prefix='cs2agi3',
pseudo_dir='./',
outdir='./'
disk_io = 'none'
/
&system
ibrav=0,
nat=24,
ntyp=3,
ecutwfc=20,
ecutrho=100,
occupations = 'smearing' 
degauss = 0.005
/
&electrons
conv_thr=1.0d-8
/
&ions
/
&cell
/

ATOMIC_SPECIES
Cs 1.0 Cs.pz-sp-hgh.UPF
Ag 1.0 Ag.pz-dn-rrkjus_psl.0.1.UPF
I 1.0 I.pz-n-rrkjus_psl.0.2.UPF

CELL_PARAMETERS {angstrom}
        5.0731310844         0.0000000000         0.0000000000
        0.0000000000        14.9716863632         0.0000000000
        0.0000000000         0.0000000000        15.5724048615

ATOMIC_POSITIONS {crystal}
Cs	     0.750000000         0.173895001         0.481896996
Cs	     0.250000000         0.826104999         0.518103004
Cs	     0.750000000         0.673895001         0.018103000
Cs	     0.250000000         0.326104999         0.981896996
Cs	     0.750000000         0.512950003         0.675678015
Cs	     0.250000000         0.487049997         0.324321985
Cs	     0.750000000         0.012950000         0.824321985
Cs	     0.250000000         0.987049997         0.175678000
Ag	     0.750000000         0.252725989         0.196572006
Ag	     0.250000000         0.747273982         0.803427994
Ag	     0.750000000         0.752726018         0.303427994
Ag	     0.250000000         0.247273996         0.696572006
I	     0.750000000         0.134651005         0.051980000
I	     0.250000000         0.865348995         0.948019981
I	     0.750000000         0.634651005         0.448020011
I	     0.250000000         0.365348995         0.551980019
I	     0.750000000         0.436262995         0.139742002
I	     0.250000000         0.563736975         0.860257983
I	     0.750000000         0.936263025         0.360258013
I	     0.250000000         0.063736998         0.639742017
I	     0.750000000         0.276486993         0.788625002
I	     0.250000000         0.723513007         0.211374998
I	     0.750000000         0.776486993         0.711374998
I	     0.250000000         0.223513007         0.288625002

K_POINTS automatic
