&control
calculation='vc-relax',
prefix='bi9aubr9',
pseudo_dir='./',
outdir='./'
disk_io = 'none'
nstep = 500
/
&system
ibrav=0,
nat=76,
ntyp=3,
ecutwfc=80,
ecutrho=400,
occupations = 'smearing' 
degauss = 0.005
/
&electrons
conv_thr=1.0d-8
/
&ions
/
&cell
/

ATOMIC_SPECIES
Bi 1.0 Bi.pbe-dn-rrkjus_psl.0.2.2.UPF
Au 1.0 Au.pbe-dn-rrkjus_psl.0.1.UPF
Br 1.0 Br.pbe-n-rrkjus_psl.0.2.UPF

CELL_PARAMETERS (angstrom)
  11.032206018   0.000000000   0.444556346
   0.000000000  15.424199537   0.000000000
  -0.186920156   0.000000000  15.680207551

ATOMIC_POSITIONS (crystal)
Bi       0.415433030   0.313248997   0.939160966
Bi       0.773456010   0.544050279   0.961922843
Bi       0.758439783   0.996497945   0.755393513
Bi       0.434490615   0.140841468   0.639477351
Bi       0.758439783   0.503502055   0.255393513
Bi       0.069545976   0.858037171   0.203818467
Bi       0.318201425   0.844217258   0.486653672
Bi       0.374240894   0.926563920   0.669094645
Bi       0.945129156   0.640926533   0.289405486
Bi       0.226544005   0.044050276   0.538077157
Bi       0.930454009   0.358037142   0.296181519
Bi       0.681798575   0.155782772   0.513346358
Bi       0.374240894   0.573436080   0.169094630
Bi       0.565509385   0.859158532   0.360522649
Bi       0.625759136   0.073436073   0.330905385
Bi       0.945129156   0.859073467   0.789405457
Bi       0.318201425   0.655782742   0.986653642
Bi       0.584566970   0.813248967   0.560839034
Bi       0.773456010   0.955949721   0.461922873
Bi       0.054870841   0.140926518   0.210594514
Bi       0.241560232   0.496497915   0.744606487
Bi       0.930454009   0.141962843   0.796181519
Bi       0.651093789   0.990311852   0.935055874
Bi       0.054870841   0.359073497   0.710594543
Bi       0.625759136   0.426563920   0.830905355
Bi       0.241560232   0.003502073   0.244606487
Bi       0.226544005   0.455949721   0.038077138
Bi       0.069545976   0.641962829   0.703818481
Bi       0.584566970   0.686751033   0.060839026
Bi       0.651093789   0.509688148   0.435055874
Bi       0.348906211   0.009688157   0.064944123
Bi       0.681798575   0.344217228   0.013346337
Bi       0.565509385   0.640841468   0.860522649
Bi       0.348906211   0.490311852   0.564944126
Bi       0.434490615   0.359158532   0.139477336
Bi       0.415433030   0.186751003   0.439160966
Au       0.393344108   0.001590133   0.394380744
Au       0.606655862   0.998409887   0.605619286
Au       0.393344108   0.498409857   0.894380714
Au       0.606655862   0.501590113   0.105619271
Br       0.819116590   0.652974559   0.465526854
Br       0.177552299   0.861653365   0.029208438
Br       0.520891556   0.885210297   0.133430400
Br       0.479108474   0.385210297   0.366569585
Br       0.987551288   0.373891380   0.887021979
Br       0.260916427   0.747334596   0.260578520
Br       0.982366659   0.357713261   0.114554403
Br       0.237698565   0.241461075   0.773651712
Br       0.177552299   0.638346635   0.529208452
Br       0.822447731   0.138346620   0.970791548
Br       0.483425354   0.866121462   0.872401656
Br       0.520891556   0.614789703   0.633430415
Br       0.884970093   0.502094953   0.679001722
Br       0.739083543   0.247334596   0.239421495
Br       0.260916427   0.752665404   0.760578490
Br       0.884970093   0.997905047   0.179001737
Br       0.516574616   0.133878552   0.127598337
Br       0.822447731   0.361653395   0.470791548
Br       0.762301405   0.758538925   0.226348288
Br       0.483425354   0.633878538   0.372401656
Br       0.237698565   0.258538925   0.273651712
Br       0.115029937   0.002094965   0.820998278
Br       0.819116590   0.847025441   0.965526884
Br       0.017633326   0.642286768   0.885445589
Br       0.739083543   0.252665404   0.739421510
Br       0.017633326   0.857713232   0.385445589
Br       0.987551288   0.126108620   0.387021949
Br       0.115029937   0.497905047   0.320998248
Br       0.180883410   0.347025411   0.534473116
Br       0.516574616   0.366121462   0.627598344
Br       0.982366659   0.142286739   0.614554411
Br       0.012448689   0.626108590   0.112978043
Br       0.479108474   0.114789696   0.866569585
Br       0.762301405   0.741461075   0.726348288
Br       0.012448689   0.873891410   0.612978021
Br       0.180883410   0.152974574   0.034473136

K_POINTS automatic
3 3 3 0 0 0
