&control
calculation='vc-relax',
prefix='sb6cl7',
pseudo_dir='./',
outdir='./'
disk_io = 'none'
/
&system
ibrav=0,
nat=104,
ntyp=2,
ecutwfc=80,
ecutrho=400,
occupations = 'smearing' 
degauss = 0.005
/
&electrons
conv_thr=1.0d-8
/
&ions
/
&cell
/

ATOMIC_SPECIES
Sb 1.0 Sb.pbe-dn-rrkjus_psl.0.3.1.UPF
Cl 1.0 Cl.pbe-n-rrkjus_psl.0.1.UPF


CELL_PARAMETERS (angstrom)
   8.719175231   0.000000000   0.000000000
   0.000000000  15.964497362   0.000000000
   0.000000000   0.000000000  23.540817548

ATOMIC_POSITIONS (crystal)
Sb       0.814452347   0.848127242   0.817850056
Sb       0.814452347   0.151872758   0.182149929
Sb       0.685547653   0.348127242   0.682149944
Sb       0.685547653   0.651872758   0.317850056
Sb       0.185547668   0.151872758   0.182149929
Sb       0.185547668   0.848127242   0.817850056
Sb       0.314452317   0.651872758   0.317850056
Sb       0.314452317   0.348127242   0.682149944
Sb       0.820787457   0.790652550   0.957133982
Sb       0.820787457   0.209347435   0.042865996
Sb       0.679212543   0.290652550   0.542866018
Sb       0.679212543   0.709347450   0.457134011
Sb       0.179212543   0.209347435   0.042865996
Sb       0.179212543   0.790652550   0.957133982
Sb       0.320787457   0.709347450   0.457134011
Sb       0.320787457   0.290652550   0.542866018
Sb       0.762110451   0.674611440   0.851312014
Sb       0.762110451   0.325388560   0.148687971
Sb       0.737889549   0.174611425   0.648687986
Sb       0.737889549   0.825388560   0.351312014
Sb       0.237889549   0.325388560   0.148687971
Sb       0.237889549   0.674611440   0.851312014
Sb       0.262110451   0.825388560   0.351312014
Sb       0.262110451   0.174611425   0.648687986
Sb       0.000000000   0.629461656   0.936055670
Sb       0.000000000   0.370538344   0.063944344
Sb       0.500000000   0.129461671   0.563944330
Sb       0.500000000   0.870538344   0.436055670
Sb       0.000000000   0.932499863   0.909461774
Sb       0.000000000   0.067500137   0.090538234
Sb       0.500000000   0.432499863   0.590538226
Sb       0.500000000   0.567500137   0.409461774
Sb       0.000000000   0.708732193   0.762863310
Sb       0.000000000   0.291267837   0.237136675
Sb       0.500000000   0.208732178   0.737136690
Sb       0.500000000   0.791267807   0.262863310
Sb       0.000000000   0.948719329   0.593390734
Sb       0.000000000   0.051280664   0.406609266
Sb       0.500000000   0.448719329   0.906609266
Sb       0.500000000   0.551280671   0.093390727
Sb       0.000000000   0.327100426   0.835448749
Sb       0.000000000   0.672899545   0.164551236
Sb       0.500000000   0.827100455   0.664551251
Sb       0.500000000   0.172899560   0.335448749
Sb       0.000000000   0.548718502   0.583497294
Sb      -0.000000000   0.451281469   0.416502706
Sb       0.500000000   0.048718520   0.916502706
Sb       0.500000000   0.951281498   0.083497309
Cl       0.800711978   0.811797421   0.676822171
Cl       0.800711978   0.188202564   0.323177829
Cl       0.699288022   0.311797421   0.823177829
Cl       0.699288022   0.688202579   0.176822171
Cl       0.199288022   0.188202564   0.323177829
Cl       0.199288022   0.811797421   0.676822171
Cl       0.300711978   0.688202579   0.176822171
Cl       0.300711978   0.311797421   0.823177829
Cl       0.794192219   0.567986057   0.654684491
Cl       0.794192219   0.432013943   0.345315539
Cl       0.705807781   0.067986050   0.845315509
Cl       0.705807781   0.932013943   0.154684461
Cl       0.205807781   0.432013943   0.345315539
Cl       0.205807781   0.567986057   0.654684491
Cl       0.294192219   0.932013943   0.154684461
Cl       0.294192219   0.067986050   0.845315509
Cl       0.698880902   0.964314232   0.580378735
Cl       0.698880902   0.035685746   0.419621265
Cl       0.801119098   0.464314262   0.919621265
Cl       0.801119098   0.535685768   0.080378743
Cl       0.301119098   0.035685746   0.419621265
Cl       0.301119098   0.964314232   0.580378735
Cl       0.198880887   0.535685768   0.080378743
Cl       0.198880887   0.464314262   0.919621265
Cl       0.757881101   0.000000000   0.000000000
Cl       0.742118899   0.500000000   0.500000000
Cl       0.242118899   0.000000000   0.000000000
Cl       0.257881101   0.500000000   0.500000000
Cl       0.000000000   0.089463844   0.545837554
Cl      -0.000000000   0.910536156   0.454162416
Cl       0.500000000   0.589463844   0.954162446
Cl       0.500000000   0.410536156   0.045837573
Cl       0.000000000   0.374577824   0.609789214
Cl       0.000000000   0.625422206   0.390210816
Cl       0.500000000   0.874577794   0.890210786
Cl       0.500000000   0.125422191   0.109789192
Cl       0.000000000   0.220967471   0.758198225
Cl       0.000000000   0.779032514   0.241801775
Cl       0.500000000   0.720967486   0.741801775
Cl       0.500000000   0.279032544   0.258198225
Cl       0.000000000   0.187834748   0.944444814
Cl       0.000000000   0.812165222   0.055555197
Cl       0.500000000   0.687834778   0.555555186
Cl       0.500000000   0.312165252   0.444444814
Cl       0.000000000   1.015631532   0.686006263
Cl       0.000000000  -0.015631505   0.313993707
Cl       0.500000000   0.515631502   0.813993737
Cl       0.500000000   0.484368468   0.186006293
Cl       0.000000000   0.700247907   0.549441695
Cl      -0.000000000   0.299752063   0.450558275
Cl       0.500000000   0.200247922   0.950558305
Cl       0.500000000   0.799752093   0.049441718
Cl       0.000000000   0.444705147   0.770896640
Cl      -0.000000000   0.555294823   0.229103346
Cl       0.500000000   0.944705177   0.729103360
Cl       0.500000000   0.055294846   0.270896640

K_POINTS automatic
2 2 2 0 0 0
