&control
calculation='vc-relax',
prefix='cssbbr6',
pseudo_dir='./',
outdir='./'
disk_io = 'none'
/
&system
ibrav=0,
nat=16,
ntyp=3,
ecutwfc=80,
ecutrho=400,
occupations = 'smearing' 
degauss = 0.005
/
&electrons
conv_thr=1.0d-8
/
&ions
/
&cell
/

ATOMIC_SPECIES
Cs 1.0 Cs.pbe-sp-hgh.UPF
Sb 1.0 Sb.pbe-dn-rrkjus_psl.0.3.1.UPF
Br 1.0 Br.pbe-n-rrkjus_psl.0.2.UPF

CELL_PARAMETERS (angstrom)
   6.647809225  -0.023769270   0.030840486
  -3.754101499   5.486410152  -0.030838256
  -2.241021855   1.187136058  11.661243495

ATOMIC_POSITIONS (crystal)
Cs       0.881853230   0.881853018   0.250000043
Cs       0.118146793   0.118147005   0.749999957
Sb       0.500000000   0.000000000   0.500000000
Sb      -0.000000000   0.500000000  -0.000000000
Br       0.450801028   0.310764537   0.388441174
Br       0.689235393   0.549198848   0.888441104
Br       0.783429813   0.361748901   0.166155273
Br       0.549198972   0.689235492   0.611558796
Br       0.638250745   0.216569588   0.666155239
Br       0.216570187   0.638251069   0.833844727
Br       0.217033838   0.914298483   0.043275506
Br       0.085701517   0.782966175   0.543275653
Br       0.782966177   0.085701547   0.956724468
Br       0.361749225   0.783430412   0.333844761
Br       0.914298513   0.217033840   0.456724376
Br       0.310764636   0.450801152   0.111558926

K_POINTS automatic
4 4 4 0 0 0
