&control
calculation='vc-relax',
prefix='csbii6',
pseudo_dir='./',
outdir='./'
disk_io = 'none'
/
&system
ibrav=0,
nat=16,
ntyp=3,
ecutwfc=80,
ecutrho=400,
occupations = 'smearing' 
degauss = 0.005
/
&electrons
conv_thr=1.0d-8
/
&ions
/
&cell
/

ATOMIC_SPECIES
Cs 1.0 Cs.pbe-sp-hgh.UPF
Bi 1.0 Bi.pbe-dn-rrkjus_psl.0.2.2.UPF
I 1.0 I.pbe-n-rrkjus_psl.0.2.UPF

CELL_PARAMETERS (angstrom)
   7.831178393  -0.093389237   0.731281096
  -4.476465169   6.425524920  -0.731383636
  -1.519177312   0.804278996  12.410574742

ATOMIC_POSITIONS (crystal)
Cs       0.959817277   0.959824709   0.249999501
Cs       0.040182746   0.040175314   0.750000499
Bi       0.500000000  -0.000000000   0.500000000
Bi      -0.000000000   0.500000000  -0.000000000
I        0.495161733   0.351127355   0.388985671
I        0.648929362   0.504890688   0.888965977
I        0.773108839   0.407193016   0.204807943
I        0.504838267   0.648872674   0.611014299
I        0.592799870   0.226903547   0.704816416
I        0.226891161   0.592806954   0.795192057
I        0.239359761   0.969987881   0.019427986
I        0.030053020   0.760658812   0.519413273
I        0.760640254   0.030012149   0.980571988
I        0.407200100   0.773096453   0.295183584
I        0.969947010   0.239341203   0.480586756
I        0.351070667   0.495109312   0.111034053

K_POINTS automatic
4 4 4 0 0 0
