&control
calculation='scf',
prefix='cs3cu2i5',
pseudo_dir='./',
outdir='./'
disk_io = 'none'
/
&system
ibrav=0,
nat=40,
ntyp=3,
ecutwfc=20,
ecutrho=100,
occupations = 'smearing' 
degauss = 0.005
/
&electrons
conv_thr=1.0d-8
/
&ions
/
&cell
/

ATOMIC_SPECIES
Cs 1.0 Cs.pz-sp-hgh.UPF
Cu 1.0 Cu.pz-dn-rrkjus_psl.0.2.UPF
I 1.0 I.pz-n-rrkjus_psl.0.2.UPF

CELL_PARAMETERS {angstrom}
       10.4195795059         0.0000000000         0.0000000000
        0.0000000000        11.8394145966         0.0000000000
        0.0000000000         0.0000000000        14.5925350189

ATOMIC_POSITIONS {crystal}
Cs	     0.552637994         0.987313986         0.823877990
Cs	     0.052638002         0.512686014         0.676122010
Cs	     0.447362006         0.487313986         0.176121995
Cs	     0.947362006         0.012686000         0.323877990
Cs	     0.447362006         0.012686000         0.176121995
Cs	     0.947362006         0.487313986         0.323877990
Cs	     0.552637994         0.512686014         0.823877990
Cs	     0.052638002         0.987313986         0.676122010
Cs	     0.906624973         0.750000000         0.048416998
Cs	     0.406625003         0.750000000         0.451582998
Cs	     0.093374997         0.250000000         0.951583028
Cs	     0.593375027         0.250000000         0.548416972
Cu	     0.740715981         0.250000000         0.126695007
Cu	     0.286810994         0.750000000         0.044185001
Cu	     0.786810994         0.750000000         0.455814987
Cu	     0.713189006         0.250000000         0.955815017
Cu	     0.213189006         0.250000000         0.544184983
Cu	     0.259283990         0.750000000         0.873305023
Cu	     0.759284019         0.750000000         0.626694977
Cu	     0.240715995         0.250000000         0.373304993
I	     0.338941008         0.750000000         0.709536016
I	     0.838940978         0.750000000         0.790463984
I	     0.661059022         0.250000000         0.290464014
I	     0.161059007         0.250000000         0.209536001
I	     0.967199028         0.250000000         0.513037980
I	     0.203353003         0.750000000         0.210690007
I	     0.467198998         0.250000000         0.986962020
I	     0.032800999         0.750000000         0.486961991
I	     0.532800972         0.750000000         0.013038000
I	     0.296647012         0.250000000         0.710690022
I	     0.796647012         0.250000000         0.789309978
I	     0.703352988         0.750000000         0.289310008
I	     0.691899002         0.562583029         0.550664008
I	     0.191899002         0.937416971         0.949335992
I	     0.308100998         0.062582999         0.449335992
I	     0.808100998         0.437417001         0.050664000
I	     0.308100998         0.437417001         0.449335992
I	     0.808100998         0.062582999         0.050664000
I	     0.691899002         0.937416971         0.550664008
I	     0.191899002         0.562583029         0.949335992

K_POINTS automatic
   1   1   1   0   0   0
