&control
calculation='scf',
prefix='cu11sb3',
pseudo_dir='./',
outdir='./'
disk_io = 'none'
/
&system
ibrav=0,
nat=28,
ntyp=2,
ecutwfc=20,
ecutrho=100,
occupations = 'smearing' 
degauss = 0.02
/
&electrons
conv_thr=1.0d-8
/
&ions
/
&cell
/

ATOMIC_SPECIES
Cu 1.0 Cu.pz-dn-rrkjus_psl.0.2.UPF
Sb 1.0 Sb.pz-dn-rrkjus_psl.0.3.1.UPF

CELL_PARAMETERS {angstrom}
        4.3213992119         0.0000000000         0.0000000000
        0.0000000000         4.8220171928         0.0000000000
        0.0000000000         0.0000000000        19.2542743683

ATOMIC_POSITIONS {crystal}
Cu	     0.000000000         0.803498030         0.000000000
Cu	     0.000000000         0.350012004         0.927053988
Cu	     0.000000000         0.350012004         0.072945997
Cu	     0.000000000         0.339576989         0.786055028
Cu	     0.000000000         0.339576989         0.213945001
Cu	     0.500000000         0.654394984         0.926692009
Cu	     0.500000000         0.654394984         0.073307998
Cu	     0.500000000         0.652773023         0.780085981
Cu	     0.500000000         0.652773023         0.219914004
Cu	     0.500000000         0.197444007         0.852249980
Cu	     0.500000000         0.197444007         0.147750005
Cu	     0.000000000         0.303498000         0.500000000
Cu	     0.000000000         0.850012004         0.427053988
Cu	     0.000000000         0.850012004         0.572946012
Cu	     0.000000000         0.839577019         0.286054999
Cu	     0.000000000         0.839577019         0.713944972
Cu	     0.500000000         0.154394999         0.426692009
Cu	     0.500000000         0.154394999         0.573307991
Cu	     0.500000000         0.152772993         0.280086011
Cu	     0.500000000         0.152772993         0.719914019
Cu	     0.500000000         0.697444022         0.352250010
Cu	     0.500000000         0.697444022         0.647750020
Sb	     0.500000000         0.165484995         0.000000000
Sb	     0.000000000         0.841306984         0.854185998
Sb	     0.000000000         0.841306984         0.145814002
Sb	     0.500000000         0.665485024         0.500000000
Sb	     0.000000000         0.341307014         0.354185998
Sb	     0.000000000         0.341307014         0.645814002

K_POINTS automatic
   2   2   2   0   0   0
