&control
calculation='scf',
prefix='cssb',
pseudo_dir='./',
outdir='./'
disk_io = 'none'
/
&system
ibrav=0,
nat=16,
ntyp=2,
ecutwfc=20,
ecutrho=100,
occupations = 'smearing' 
degauss = 0.005
/
&electrons
conv_thr=1.0d-8
/
&ions
/
&cell
/

ATOMIC_SPECIES
Cs 1.0 Cs.pz-sp-hgh.UPF
Sb 1.0 Sb.pz-dn-rrkjus_psl.0.3.1.UPF

CELL_PARAMETERS {angstrom}
        7.5591154099         0.0000000000         0.0000000000
        0.0000000000         7.7865672112         0.0000000000
        0.0000000000         0.0000000000        13.4953756332

ATOMIC_POSITIONS {crystal}
Cs	     0.092835002         0.894567013         0.583419979
Cs	     0.325942993         0.336465001         0.716818988
Cs	     0.907164991         0.394567013         0.916580021
Cs	     0.825942993         0.163534999         0.283181012
Cs	     0.592835009         0.605432987         0.416579992
Cs	     0.407164991         0.105433002         0.083420001
Cs	     0.674057007         0.836465001         0.783181012
Cs	     0.174057007         0.663534999         0.216819003
Sb	     0.089252003         0.434018999         0.469498008
Sb	     0.589251995         0.065981001         0.530502021
Sb	     0.175989002         0.824037015         0.887012005
Sb	     0.910748005         0.934019029         0.030502001
Sb	     0.824011028         0.324036986         0.612987995
Sb	     0.324010998         0.175962999         0.387012005
Sb	     0.410748005         0.565980971         0.969497979
Sb	     0.675988972         0.675962985         0.112988003

K_POINTS automatic
   4   4   4   0   0   0
