&control
calculation='vc-relax',
prefix='cs3ag2i5',
pseudo_dir='./',
outdir='./'
disk_io = 'none'
/
&system
ibrav=0,
nat=40,
ntyp=3,
ecutwfc=80,
ecutrho=400,
occupations = 'smearing' 
degauss = 0.005
/
&electrons
conv_thr=1.0d-8
/
&ions
/
&cell
/

ATOMIC_SPECIES
Cs 1.0 Cs.pbe-sp-hgh.UPF
Ag 1.0 Ag.pbe-dn-rrkjus_psl.0.1.UPF
I 1.0 I.pbe-n-rrkjus_psl.0.2.UPF

CELL_PARAMETERS (angstrom)
  10.291476193  -0.000260826   0.000042324
  -0.000304130  12.223267229   0.000002219
  -0.000000075   0.000002447  15.070824439

ATOMIC_POSITIONS (crystal)
Cs       0.545579186   0.998028041   0.835818780
Cs       0.045558513   0.501960547   0.664194339
Cs       0.454447898   0.498035320   0.164189929
Cs       0.954413820   0.001969128   0.335814361
Cs       0.454420814   0.001971945   0.164181205
Cs       0.954441495   0.498039453   0.335805661
Cs       0.545552102   0.501964680   0.835810056
Cs       0.045586188   0.998030858   0.664185639
Cs       0.916974175   0.750015591   0.050389557
Cs       0.416970191   0.750015346   0.449622356
Cs       0.083025795   0.249984409   0.949610469
Cs       0.583029839   0.249984654   0.550377614
Ag       0.812836847   0.250012354   0.163077240
Ag       0.288834999   0.749982150   0.028254361
Ag       0.788821039   0.749983041   0.471747069
Ag       0.711165001   0.250017850   0.971745657
Ag       0.211178961   0.250016959   0.528252901
Ag       0.187163124   0.749987646   0.836922790
Ag       0.687191495   0.749988089   0.663080423
Ag       0.312808519   0.250011911   0.336919547
I        0.392111292   0.749995633   0.707110284
I        0.892124428   0.749995243   0.792901175
I        0.607888738   0.250004367   0.292889746
I        0.107875557   0.250004757   0.207098810
I        0.939849488   0.249998669   0.502746947
I        0.211661029   0.749989190   0.209391242
I        0.439835663   0.249998627   0.997255033
I        0.060150539   0.750001331   0.497253024
I        0.560164307   0.750001373   0.002744987
I        0.288351972   0.250010017   0.709382484
I        0.788338986   0.250010810   0.790608743
I        0.711648028   0.749989983   0.290617546
I        0.691840790   0.552304556   0.562591666
I        0.191864584   0.947670462   0.937425304
I        0.308141895   0.052328502   0.437411542
I        0.808152779   0.447695510   0.062578441
I        0.308159210   0.447695474   0.437408334
I        0.808135416   0.052329508   0.062574688
I        0.691858105   0.947671468   0.562588458
I        0.191847221   0.552304520   0.937421551

K_POINTS automatic
2 2 2 0 0 0
