&control
calculation='vc-relax',
prefix='aubr3',
pseudo_dir='./',
outdir='./'
disk_io = 'none'
/
&system
ibrav=0,
nat=32,
ntyp=2,
ecutwfc=80,
ecutrho=400,
occupations = 'smearing' 
degauss = 0.005
/
&electrons
conv_thr=1.0d-8
/
&ions
/
&cell
/

ATOMIC_SPECIES
Au 1.0 Au.pz-dn-rrkjus_psl.0.1.UPF
Br 1.0 Br.pz-n-rrkjus_psl.0.2.UPF

CELL_PARAMETERS (angstrom)
   6.413547992   0.000000000  -0.021830465
   0.000000000  20.045107136   0.000000000
  -3.775679806   0.000000000   6.798933475

ATOMIC_POSITIONS (crystal)
Au       0.620423715   0.712135494   0.783505308
Au       0.379576315   0.212135509   0.716494692
Au       0.379576315   0.287864476   0.216494662
Au       0.620423715   0.787864506   0.283505338
Au       0.735677351   0.535889809   0.759422165
Au       0.264322679   0.035889820   0.740577835
Au       0.264322679   0.464110191   0.240577850
Au       0.735677351   0.964110191   0.259422165
Br       0.296348145   0.771478556   0.793954112
Br       0.703651855   0.271478586   0.706045888
Br       0.703651855   0.228521414   0.206045858
Br       0.296348145   0.728521444   0.293954142
Br       0.818159381   0.816452512   0.787404949
Br       0.181840589   0.316452483   0.712595051
Br       0.181840589   0.183547503   0.212595036
Br       0.818159381   0.683547488   0.287404949
Br       0.411372222   0.894587259   0.258345038
Br       0.588627748   0.394587259   0.241654977
Br       0.588627748   0.105412741   0.741654992
Br       0.411372222   0.605412741   0.758345008
Br       0.522364166   0.067350095   0.228756140
Br       0.477635864   0.567350087   0.271243860
Br       0.477635864   0.932649913   0.771243830
Br       0.522364166   0.432649913   0.728756170
Br       0.061910208   0.023930195   0.251517472
Br       0.938089817   0.523930182   0.248482528
Br       0.938089817   0.976069818   0.748482528
Br       0.061910208   0.476069818   0.751517472
Br       0.952169845   0.856437884   0.301476152
Br       0.047830155   0.356437854   0.198523848
Br       0.047830155   0.143562146   0.698523878
Br       0.952169845   0.643562116   0.801476122

K_POINTS automatic
2 2 2 0 0 0
