&control
    calculation='nscf'
    prefix='si'
    restart_mode='from_scratch'
    pseudo_dir='../pp'
    outdir='./'
    tprnfor=.true.
    tstress=.true.
    verbosity = 'high'
 /
 &system
    ibrav=2
    celldm(1)= 10.20755823
    nat = 2
    ntyp = 1
    nbnd = 14
    ecutwfc = 45
 /
 &electrons
    diagonalization='david'
    mixing_beta=0.7
    conv_thr=1.0d-10
 /
ATOMIC_SPECIES
  Si  28.0855  Si.pz-vbc.UPF
ATOMIC_POSITIONS alat
  Si   0.00  0.00  0.00
  Si   0.25  0.25  0.25
K_POINTS crystal
216
  0.0000000000000  0.0000000000000  0.0000000000000  4.629630e-03 
  0.0000000000000  0.0000000000000  0.1666666666667  4.629630e-03 
  0.0000000000000  0.0000000000000  0.3333333333333  4.629630e-03 
  0.0000000000000  0.0000000000000  0.5000000000000  4.629630e-03 
  0.0000000000000  0.0000000000000  0.6666666666667  4.629630e-03 
  0.0000000000000  0.0000000000000  0.8333333333333  4.629630e-03 
  0.0000000000000  0.1666666666667  0.0000000000000  4.629630e-03 
  0.0000000000000  0.1666666666667  0.1666666666667  4.629630e-03 
  0.0000000000000  0.1666666666667  0.3333333333333  4.629630e-03 
  0.0000000000000  0.1666666666667  0.5000000000000  4.629630e-03 
  0.0000000000000  0.1666666666667  0.6666666666667  4.629630e-03 
  0.0000000000000  0.1666666666667  0.8333333333333  4.629630e-03 
  0.0000000000000  0.3333333333333  0.0000000000000  4.629630e-03 
  0.0000000000000  0.3333333333333  0.1666666666667  4.629630e-03 
  0.0000000000000  0.3333333333333  0.3333333333333  4.629630e-03 
  0.0000000000000  0.3333333333333  0.5000000000000  4.629630e-03 
  0.0000000000000  0.3333333333333  0.6666666666667  4.629630e-03 
  0.0000000000000  0.3333333333333  0.8333333333333  4.629630e-03 
  0.0000000000000  0.5000000000000  0.0000000000000  4.629630e-03 
  0.0000000000000  0.5000000000000  0.1666666666667  4.629630e-03 
  0.0000000000000  0.5000000000000  0.3333333333333  4.629630e-03 
  0.0000000000000  0.5000000000000  0.5000000000000  4.629630e-03 
  0.0000000000000  0.5000000000000  0.6666666666667  4.629630e-03 
  0.0000000000000  0.5000000000000  0.8333333333333  4.629630e-03 
  0.0000000000000  0.6666666666667  0.0000000000000  4.629630e-03 
  0.0000000000000  0.6666666666667  0.1666666666667  4.629630e-03 
  0.0000000000000  0.6666666666667  0.3333333333333  4.629630e-03 
  0.0000000000000  0.6666666666667  0.5000000000000  4.629630e-03 
  0.0000000000000  0.6666666666667  0.6666666666667  4.629630e-03 
  0.0000000000000  0.6666666666667  0.8333333333333  4.629630e-03 
  0.0000000000000  0.8333333333333  0.0000000000000  4.629630e-03 
  0.0000000000000  0.8333333333333  0.1666666666667  4.629630e-03 
  0.0000000000000  0.8333333333333  0.3333333333333  4.629630e-03 
  0.0000000000000  0.8333333333333  0.5000000000000  4.629630e-03 
  0.0000000000000  0.8333333333333  0.6666666666667  4.629630e-03 
  0.0000000000000  0.8333333333333  0.8333333333333  4.629630e-03 
  0.1666666666667  0.0000000000000  0.0000000000000  4.629630e-03 
  0.1666666666667  0.0000000000000  0.1666666666667  4.629630e-03 
  0.1666666666667  0.0000000000000  0.3333333333333  4.629630e-03 
  0.1666666666667  0.0000000000000  0.5000000000000  4.629630e-03 
  0.1666666666667  0.0000000000000  0.6666666666667  4.629630e-03 
  0.1666666666667  0.0000000000000  0.8333333333333  4.629630e-03 
  0.1666666666667  0.1666666666667  0.0000000000000  4.629630e-03 
  0.1666666666667  0.1666666666667  0.1666666666667  4.629630e-03 
  0.1666666666667  0.1666666666667  0.3333333333333  4.629630e-03 
  0.1666666666667  0.1666666666667  0.5000000000000  4.629630e-03 
  0.1666666666667  0.1666666666667  0.6666666666667  4.629630e-03 
  0.1666666666667  0.1666666666667  0.8333333333333  4.629630e-03 
  0.1666666666667  0.3333333333333  0.0000000000000  4.629630e-03 
  0.1666666666667  0.3333333333333  0.1666666666667  4.629630e-03 
  0.1666666666667  0.3333333333333  0.3333333333333  4.629630e-03 
  0.1666666666667  0.3333333333333  0.5000000000000  4.629630e-03 
  0.1666666666667  0.3333333333333  0.6666666666667  4.629630e-03 
  0.1666666666667  0.3333333333333  0.8333333333333  4.629630e-03 
  0.1666666666667  0.5000000000000  0.0000000000000  4.629630e-03 
  0.1666666666667  0.5000000000000  0.1666666666667  4.629630e-03 
  0.1666666666667  0.5000000000000  0.3333333333333  4.629630e-03 
  0.1666666666667  0.5000000000000  0.5000000000000  4.629630e-03 
  0.1666666666667  0.5000000000000  0.6666666666667  4.629630e-03 
  0.1666666666667  0.5000000000000  0.8333333333333  4.629630e-03 
  0.1666666666667  0.6666666666667  0.0000000000000  4.629630e-03 
  0.1666666666667  0.6666666666667  0.1666666666667  4.629630e-03 
  0.1666666666667  0.6666666666667  0.3333333333333  4.629630e-03 
  0.1666666666667  0.6666666666667  0.5000000000000  4.629630e-03 
  0.1666666666667  0.6666666666667  0.6666666666667  4.629630e-03 
  0.1666666666667  0.6666666666667  0.8333333333333  4.629630e-03 
  0.1666666666667  0.8333333333333  0.0000000000000  4.629630e-03 
  0.1666666666667  0.8333333333333  0.1666666666667  4.629630e-03 
  0.1666666666667  0.8333333333333  0.3333333333333  4.629630e-03 
  0.1666666666667  0.8333333333333  0.5000000000000  4.629630e-03 
  0.1666666666667  0.8333333333333  0.6666666666667  4.629630e-03 
  0.1666666666667  0.8333333333333  0.8333333333333  4.629630e-03 
  0.3333333333333  0.0000000000000  0.0000000000000  4.629630e-03 
  0.3333333333333  0.0000000000000  0.1666666666667  4.629630e-03 
  0.3333333333333  0.0000000000000  0.3333333333333  4.629630e-03 
  0.3333333333333  0.0000000000000  0.5000000000000  4.629630e-03 
  0.3333333333333  0.0000000000000  0.6666666666667  4.629630e-03 
  0.3333333333333  0.0000000000000  0.8333333333333  4.629630e-03 
  0.3333333333333  0.1666666666667  0.0000000000000  4.629630e-03 
  0.3333333333333  0.1666666666667  0.1666666666667  4.629630e-03 
  0.3333333333333  0.1666666666667  0.3333333333333  4.629630e-03 
  0.3333333333333  0.1666666666667  0.5000000000000  4.629630e-03 
  0.3333333333333  0.1666666666667  0.6666666666667  4.629630e-03 
  0.3333333333333  0.1666666666667  0.8333333333333  4.629630e-03 
  0.3333333333333  0.3333333333333  0.0000000000000  4.629630e-03 
  0.3333333333333  0.3333333333333  0.1666666666667  4.629630e-03 
  0.3333333333333  0.3333333333333  0.3333333333333  4.629630e-03 
  0.3333333333333  0.3333333333333  0.5000000000000  4.629630e-03 
  0.3333333333333  0.3333333333333  0.6666666666667  4.629630e-03 
  0.3333333333333  0.3333333333333  0.8333333333333  4.629630e-03 
  0.3333333333333  0.5000000000000  0.0000000000000  4.629630e-03 
  0.3333333333333  0.5000000000000  0.1666666666667  4.629630e-03 
  0.3333333333333  0.5000000000000  0.3333333333333  4.629630e-03 
  0.3333333333333  0.5000000000000  0.5000000000000  4.629630e-03 
  0.3333333333333  0.5000000000000  0.6666666666667  4.629630e-03 
  0.3333333333333  0.5000000000000  0.8333333333333  4.629630e-03 
  0.3333333333333  0.6666666666667  0.0000000000000  4.629630e-03 
  0.3333333333333  0.6666666666667  0.1666666666667  4.629630e-03 
  0.3333333333333  0.6666666666667  0.3333333333333  4.629630e-03 
  0.3333333333333  0.6666666666667  0.5000000000000  4.629630e-03 
  0.3333333333333  0.6666666666667  0.6666666666667  4.629630e-03 
  0.3333333333333  0.6666666666667  0.8333333333333  4.629630e-03 
  0.3333333333333  0.8333333333333  0.0000000000000  4.629630e-03 
  0.3333333333333  0.8333333333333  0.1666666666667  4.629630e-03 
  0.3333333333333  0.8333333333333  0.3333333333333  4.629630e-03 
  0.3333333333333  0.8333333333333  0.5000000000000  4.629630e-03 
  0.3333333333333  0.8333333333333  0.6666666666667  4.629630e-03 
  0.3333333333333  0.8333333333333  0.8333333333333  4.629630e-03 
  0.5000000000000  0.0000000000000  0.0000000000000  4.629630e-03 
  0.5000000000000  0.0000000000000  0.1666666666667  4.629630e-03 
  0.5000000000000  0.0000000000000  0.3333333333333  4.629630e-03 
  0.5000000000000  0.0000000000000  0.5000000000000  4.629630e-03 
  0.5000000000000  0.0000000000000  0.6666666666667  4.629630e-03 
  0.5000000000000  0.0000000000000  0.8333333333333  4.629630e-03 
  0.5000000000000  0.1666666666667  0.0000000000000  4.629630e-03 
  0.5000000000000  0.1666666666667  0.1666666666667  4.629630e-03 
  0.5000000000000  0.1666666666667  0.3333333333333  4.629630e-03 
  0.5000000000000  0.1666666666667  0.5000000000000  4.629630e-03 
  0.5000000000000  0.1666666666667  0.6666666666667  4.629630e-03 
  0.5000000000000  0.1666666666667  0.8333333333333  4.629630e-03 
  0.5000000000000  0.3333333333333  0.0000000000000  4.629630e-03 
  0.5000000000000  0.3333333333333  0.1666666666667  4.629630e-03 
  0.5000000000000  0.3333333333333  0.3333333333333  4.629630e-03 
  0.5000000000000  0.3333333333333  0.5000000000000  4.629630e-03 
  0.5000000000000  0.3333333333333  0.6666666666667  4.629630e-03 
  0.5000000000000  0.3333333333333  0.8333333333333  4.629630e-03 
  0.5000000000000  0.5000000000000  0.0000000000000  4.629630e-03 
  0.5000000000000  0.5000000000000  0.1666666666667  4.629630e-03 
  0.5000000000000  0.5000000000000  0.3333333333333  4.629630e-03 
  0.5000000000000  0.5000000000000  0.5000000000000  4.629630e-03 
  0.5000000000000  0.5000000000000  0.6666666666667  4.629630e-03 
  0.5000000000000  0.5000000000000  0.8333333333333  4.629630e-03 
  0.5000000000000  0.6666666666667  0.0000000000000  4.629630e-03 
  0.5000000000000  0.6666666666667  0.1666666666667  4.629630e-03 
  0.5000000000000  0.6666666666667  0.3333333333333  4.629630e-03 
  0.5000000000000  0.6666666666667  0.5000000000000  4.629630e-03 
  0.5000000000000  0.6666666666667  0.6666666666667  4.629630e-03 
  0.5000000000000  0.6666666666667  0.8333333333333  4.629630e-03 
  0.5000000000000  0.8333333333333  0.0000000000000  4.629630e-03 
  0.5000000000000  0.8333333333333  0.1666666666667  4.629630e-03 
  0.5000000000000  0.8333333333333  0.3333333333333  4.629630e-03 
  0.5000000000000  0.8333333333333  0.5000000000000  4.629630e-03 
  0.5000000000000  0.8333333333333  0.6666666666667  4.629630e-03 
  0.5000000000000  0.8333333333333  0.8333333333333  4.629630e-03 
  0.6666666666667  0.0000000000000  0.0000000000000  4.629630e-03 
  0.6666666666667  0.0000000000000  0.1666666666667  4.629630e-03 
  0.6666666666667  0.0000000000000  0.3333333333333  4.629630e-03 
  0.6666666666667  0.0000000000000  0.5000000000000  4.629630e-03 
  0.6666666666667  0.0000000000000  0.6666666666667  4.629630e-03 
  0.6666666666667  0.0000000000000  0.8333333333333  4.629630e-03 
  0.6666666666667  0.1666666666667  0.0000000000000  4.629630e-03 
  0.6666666666667  0.1666666666667  0.1666666666667  4.629630e-03 
  0.6666666666667  0.1666666666667  0.3333333333333  4.629630e-03 
  0.6666666666667  0.1666666666667  0.5000000000000  4.629630e-03 
  0.6666666666667  0.1666666666667  0.6666666666667  4.629630e-03 
  0.6666666666667  0.1666666666667  0.8333333333333  4.629630e-03 
  0.6666666666667  0.3333333333333  0.0000000000000  4.629630e-03 
  0.6666666666667  0.3333333333333  0.1666666666667  4.629630e-03 
  0.6666666666667  0.3333333333333  0.3333333333333  4.629630e-03 
  0.6666666666667  0.3333333333333  0.5000000000000  4.629630e-03 
  0.6666666666667  0.3333333333333  0.6666666666667  4.629630e-03 
  0.6666666666667  0.3333333333333  0.8333333333333  4.629630e-03 
  0.6666666666667  0.5000000000000  0.0000000000000  4.629630e-03 
  0.6666666666667  0.5000000000000  0.1666666666667  4.629630e-03 
  0.6666666666667  0.5000000000000  0.3333333333333  4.629630e-03 
  0.6666666666667  0.5000000000000  0.5000000000000  4.629630e-03 
  0.6666666666667  0.5000000000000  0.6666666666667  4.629630e-03 
  0.6666666666667  0.5000000000000  0.8333333333333  4.629630e-03 
  0.6666666666667  0.6666666666667  0.0000000000000  4.629630e-03 
  0.6666666666667  0.6666666666667  0.1666666666667  4.629630e-03 
  0.6666666666667  0.6666666666667  0.3333333333333  4.629630e-03 
  0.6666666666667  0.6666666666667  0.5000000000000  4.629630e-03 
  0.6666666666667  0.6666666666667  0.6666666666667  4.629630e-03 
  0.6666666666667  0.6666666666667  0.8333333333333  4.629630e-03 
  0.6666666666667  0.8333333333333  0.0000000000000  4.629630e-03 
  0.6666666666667  0.8333333333333  0.1666666666667  4.629630e-03 
  0.6666666666667  0.8333333333333  0.3333333333333  4.629630e-03 
  0.6666666666667  0.8333333333333  0.5000000000000  4.629630e-03 
  0.6666666666667  0.8333333333333  0.6666666666667  4.629630e-03 
  0.6666666666667  0.8333333333333  0.8333333333333  4.629630e-03 
  0.8333333333333  0.0000000000000  0.0000000000000  4.629630e-03 
  0.8333333333333  0.0000000000000  0.1666666666667  4.629630e-03 
  0.8333333333333  0.0000000000000  0.3333333333333  4.629630e-03 
  0.8333333333333  0.0000000000000  0.5000000000000  4.629630e-03 
  0.8333333333333  0.0000000000000  0.6666666666667  4.629630e-03 
  0.8333333333333  0.0000000000000  0.8333333333333  4.629630e-03 
  0.8333333333333  0.1666666666667  0.0000000000000  4.629630e-03 
  0.8333333333333  0.1666666666667  0.1666666666667  4.629630e-03 
  0.8333333333333  0.1666666666667  0.3333333333333  4.629630e-03 
  0.8333333333333  0.1666666666667  0.5000000000000  4.629630e-03 
  0.8333333333333  0.1666666666667  0.6666666666667  4.629630e-03 
  0.8333333333333  0.1666666666667  0.8333333333333  4.629630e-03 
  0.8333333333333  0.3333333333333  0.0000000000000  4.629630e-03 
  0.8333333333333  0.3333333333333  0.1666666666667  4.629630e-03 
  0.8333333333333  0.3333333333333  0.3333333333333  4.629630e-03 
  0.8333333333333  0.3333333333333  0.5000000000000  4.629630e-03 
  0.8333333333333  0.3333333333333  0.6666666666667  4.629630e-03 
  0.8333333333333  0.3333333333333  0.8333333333333  4.629630e-03 
  0.8333333333333  0.5000000000000  0.0000000000000  4.629630e-03 
  0.8333333333333  0.5000000000000  0.1666666666667  4.629630e-03 
  0.8333333333333  0.5000000000000  0.3333333333333  4.629630e-03 
  0.8333333333333  0.5000000000000  0.5000000000000  4.629630e-03 
  0.8333333333333  0.5000000000000  0.6666666666667  4.629630e-03 
  0.8333333333333  0.5000000000000  0.8333333333333  4.629630e-03 
  0.8333333333333  0.6666666666667  0.0000000000000  4.629630e-03 
  0.8333333333333  0.6666666666667  0.1666666666667  4.629630e-03 
  0.8333333333333  0.6666666666667  0.3333333333333  4.629630e-03 
  0.8333333333333  0.6666666666667  0.5000000000000  4.629630e-03 
  0.8333333333333  0.6666666666667  0.6666666666667  4.629630e-03 
  0.8333333333333  0.6666666666667  0.8333333333333  4.629630e-03 
  0.8333333333333  0.8333333333333  0.0000000000000  4.629630e-03 
  0.8333333333333  0.8333333333333  0.1666666666667  4.629630e-03 
  0.8333333333333  0.8333333333333  0.3333333333333  4.629630e-03 
  0.8333333333333  0.8333333333333  0.5000000000000  4.629630e-03 
  0.8333333333333  0.8333333333333  0.6666666666667  4.629630e-03 
  0.8333333333333  0.8333333333333  0.8333333333333  4.629630e-03
