&control
calculation='vc-relax',
prefix='cs3cu2i11',
pseudo_dir='./',
outdir='./'
disk_io = 'none'
/
&system
ibrav=0,
nat=64,
ntyp=3,
ecutwfc=80,
ecutrho=400,
occupations = 'smearing' 
degauss = 0.005
/
&electrons
conv_thr=1.0d-8
/
&ions
/
&cell
/

ATOMIC_SPECIES
Cs 1.0 Cs.pbe-sp-hgh.UPF
Cu 1.0 Cu.pbe-dn-rrkjus_psl.0.2.UPF
I 1.0 I.pbe-n-rrkjus_psl.0.2.UPF

CELL_PARAMETERS (angstrom)
   8.168250702   0.000000000  -0.061890065
   0.000000000  17.957834040   0.000000000
  -1.474686710   0.000000000  20.756235087

ATOMIC_POSITIONS (crystal)
Cs       0.261787018   0.623469385   0.927093960
Cs       0.261787018   0.876530615   0.427093960
Cs       0.733754481   0.024212162   0.108807721
Cs       0.733754481   0.475787834   0.608807743
Cs       0.266245519   0.524212136   0.391192287
Cs       0.752268892   0.771593710   0.680137805
Cs       0.752268892   0.728406290   0.180137820
Cs       0.738212952   0.123469385   0.572906040
Cs       0.266245519   0.975787864   0.891192257
Cs       0.247731078   0.271593710   0.819862195
Cs       0.738212952   0.376530615   0.072906055
Cs       0.247731078   0.228406275   0.319862195
Cu       0.247621933   0.309979106   0.556874845
Cu       0.245706596   0.503676903   0.166335867
Cu       0.754293419   1.003676903   0.333664147
Cu       0.754293419   0.496323097   0.833664147
Cu       0.245706596  -0.003676892   0.666335853
Cu       0.752378067   0.690020894   0.443125125
Cu       0.752378067   0.809979106   0.943125155
Cu       0.247621933   0.190020909   0.056874875
I        0.591326809   0.207874349   0.197850621
I        0.238970179   0.168595690   0.527831087
I        0.077924392   0.855895828   0.075260632
I        0.021203338   0.571080742   0.093406726
I        0.976549435   0.792408816   0.864213966
I        0.978796678   0.071080719   0.406593274
I        0.469353598   0.939112770   0.600664076
I        0.780017377   0.546903109   0.428404279
I        0.021203338   0.928919258   0.593406756
I        0.496228212   0.169601516   0.989889385
I        0.019967006   0.447701423   0.230295811
I        0.242695826   0.718047490   0.688455366
I        0.980032988   0.947701423   0.269704189
I        0.408673161   0.707874334   0.302149394
I        0.780017377   0.953096891   0.928404249
I        0.242695826   0.781952510   0.188455396
I        0.019967006   0.052298585   0.730295811
I        0.469872467   0.437541395   0.239323397
I        0.976549435   0.707591184   0.364213966
I        0.530127563   0.937541425   0.260676603
I        0.077924392   0.644104172   0.575260624
I        0.496228212   0.330398499   0.489889415
I        0.023450583   0.292408816   0.635786034
I        0.503771788   0.830398499   0.010110590
I        0.757304174   0.218047505   0.811544634
I        0.469353598   0.560887230   0.100664061
I        0.761029851   0.668595720   0.972168913
I        0.503771788   0.669601501   0.510110615
I        0.980032988   0.552298577   0.769704189
I        0.922075585   0.355895828   0.424739376
I        0.023450583   0.207591199   0.135786049
I        0.591326809   0.292125666   0.697850636
I        0.408673161   0.792125666   0.802149364
I        0.219982623   0.046903080   0.071595721
I        0.761029851   0.831404280   0.472168943
I        0.530646372   0.060887215   0.399335954
I        0.757304174   0.281952510   0.311544604
I        0.978796678   0.428919288   0.906593244
I        0.219982623   0.453096920   0.571595751
I        0.530646372   0.439112800   0.899335924
I        0.922075585   0.144104187   0.924739376
I        0.238970179   0.331404310   0.027831057
I        0.469872467   0.062458597   0.739323397
I        0.530127563   0.562458575   0.760676603

K_POINTS automatic
2 2 2 0 0 0
