&control
calculation='scf',
prefix='csbr',
pseudo_dir='./',
outdir='./'
disk_io = 'none'
/
&system
ibrav=0,
nat=2,
ntyp=2,
ecutwfc=20,
ecutrho=100,
occupations = 'smearing' 
degauss = 0.005
/
&electrons
conv_thr=1.0d-8
/
&ions
/
&cell
/

ATOMIC_SPECIES
Cs 1.0 Cs.pz-sp-hgh.UPF
Br 1.0 Br.pz-n-rrkjus_psl.0.2.UPF

CELL_PARAMETERS {angstrom}
        5.2340736389         0.0000000000         0.0000000000
        2.6170368195         4.5328407366         0.0000000000
        2.6170368195         1.5109469122         4.2736032305

ATOMIC_POSITIONS {crystal}
Cs     0.000000000         0.000000000         0.000000000
Br     0.500000000         0.500000000         0.500000000

K_POINTS automatic
   16   32   32    0    0    0
