&control
calculation='vc-relax',
prefix='biagbr6',
pseudo_dir='./',
outdir='./'
disk_io = 'none'
/
&system
ibrav=0,
nat=32,
ntyp=3,
ecutwfc=80,
ecutrho=400,
occupations = 'smearing' 
degauss = 0.005
/
&electrons
conv_thr=1.0d-8
/
&ions
/
&cell
/

ATOMIC_SPECIES
Bi 1.0 Bi.pbe-dn-rrkjus_psl.0.2.2.UPF
Ag 1.0 Ag.pbe-dn-rrkjus_psl.0.1.UPF
Br 1.0 Br.pbe-n-rrkjus_psl.0.2.UPF

CELL_PARAMETERS (angstrom)
   8.634688642   0.023885473  -0.072269091
  -4.190105217   9.712877353   0.053326200
  -1.920155918  -4.466595130  14.450150798

ATOMIC_POSITIONS (crystal)
Bi       0.593490972   0.926912673   0.620069328
Bi       0.030979396   0.683316789   0.128011957
Bi       0.406509028   0.073087305   0.379930642
Bi       0.969020619   0.316683211   0.871988057
Ag       0.292484723   0.629410408   0.764089940
Ag       0.500000000   0.500000000   0.500000000
Ag       0.707515247   0.370589621   0.235910075
Ag       0.000000000   0.000000000   0.000000000
Br       0.790949837   0.105986412   0.973775447
Br       0.715034005   0.153204045   0.268141578
Br       0.284965995   0.846795940   0.731858422
Br       0.772725428   0.793517992   0.032338553
Br       0.622692012   0.193867383   0.738768661
Br       0.301109998   0.409691590   0.794493652
Br       0.698890002   0.590308410   0.205506348
Br       0.316394742   0.630662458   0.484944939
Br       0.227274558   0.206482023   0.967661445
Br       0.763947780   0.731603297   0.533853095
Br       0.209050148   0.894013581   0.026224542
Br       0.728714254   0.055083431   0.486495612
Br       0.593702900   0.714329327   0.743507119
Br       0.942915311   0.050132757   0.729536918
Br       0.236052250   0.268396703   0.466146905
Br       0.377307988   0.806132587   0.261231339
Br       0.986160363   0.542841153   0.779940858
Br       0.763303932   0.434849447   0.969920113
Br       0.236696068   0.565150553   0.030079892
Br       0.013839617   0.457158847   0.220059156
Br       0.406297129   0.285670673   0.256492910
Br       0.271285717   0.944916580   0.513504359
Br       0.683605288   0.369337512   0.515055061
Br       0.057084681   0.949867258   0.270463053

K_POINTS automatic
3 3 3 0 0 0
