&control
calculation='vc-relax',
prefix='cs2bibr6',
pseudo_dir='./',
outdir='./'
disk_io = 'none'
/
&system
ibrav=0,
nat=36,
ntyp=3,
ecutwfc=80,
ecutrho=400,
occupations = 'smearing' 
degauss = 0.005
nosym = .TRUE.
/
&electrons
conv_thr=1.0d-8
/
&ions
/
&cell
/

ATOMIC_SPECIES
Cs 1.0 Cs.pbe-sp-hgh.UPF
Bi 1.0 Bi.pbe-dn-rrkjus_psl.0.2.2.UPF
Br 1.0 Br.pbe-n-rrkjus_psl.0.2.UPF       

CELL_PARAMETERS (angstrom)
  12.328755557  -0.069290257  -0.000002190
   4.114815514  11.622017642   0.000000182
  -8.221785871  -5.776362478   7.144150232

ATOMIC_POSITIONS (crystal)
Cs       0.625253991   0.624999787   0.500253527
Cs       0.874999708   0.374746242   0.999746036
Cs       0.124745865   0.125000368   0.499746144
Cs       0.375000009   0.875253695   0.000253665
Cs       0.124746136   0.624999641   0.999745805
Cs       0.874999994   0.875253674   0.500253756
Cs       0.375000084   0.374746216   0.499746531
Cs       0.625254202   0.125000448   0.000254540
Bi       0.250000128   0.750000144   0.499999975
Bi       0.499999933   0.499999995   0.000000035
Bi       0.749999906   0.249999938   0.500000026
Bi       0.000000070  -0.000000050   0.000000013
Br       0.128927258   0.128927172   0.000000106
Br       0.505566015   0.749214020   0.756352009
Br       0.878927244   0.378927248   0.500000109
Br       0.007756180   0.251134858   0.756621317
Br       0.871072564   0.871072537  -0.000000111
Br       0.250785933   1.007137320   0.756351386
Br       0.244432425   0.500786057   0.743646442
Br       0.499214172   0.242860978   0.743646751
Br       0.499214254   0.755567449   0.256353246
Br       0.494513496   0.251134963   0.243378598
Br       0.001134766   0.744512305   0.743377649
Br       0.250785902   0.494434504   0.243648578
Br       0.120998765   0.620998759   0.499999955
Br       0.757139690   0.500786018   0.256353649
Br       0.255487242   0.998865048   0.256622122
Br       0.748865053   0.992243190   0.243378042
Br       0.742243029   0.998865122   0.743377833
Br       0.621072628   0.121072729   0.499999856
Br       0.370998565   0.370998581   0.000000006
Br       0.629001687   0.629001650   0.000000049
Br       0.748865031   0.505487155   0.756622018
Br      -0.007137977   0.749214008   0.243647999
Br       0.001134752   0.257756983   0.256622340
Br       0.379001296   0.879001315   0.500000023

K_POINTS automatic
2 2 2 0 0 0 
