&control
calculation='vc-relax',
prefix='cs3sbi6',
pseudo_dir='./',
outdir='./'
disk_io = 'none'
/
&system
ibrav=0,
nat=40,
ntyp=3,
ecutwfc=80,
ecutrho=400,
occupations = 'smearing' 
degauss = 0.005
/
&electrons
conv_thr=1.0d-8
/
&ions
/
&cell
/

ATOMIC_SPECIES
Cs 1.0 Cs.pbe-sp-hgh.UPF
Sb 1.0 Sb.pbe-dn-rrkjus_psl.0.3.1.UPF
I 1.0 I.pbe-n-rrkjus_psl.0.2.UPF

CELL_PARAMETERS (angstrom)
  13.745781874  -0.023911851   0.038342078
 -11.415283037   7.657566123  -0.038345262
  -2.012589794   0.614422715  12.404566002

ATOMIC_POSITIONS (crystal)
Cs       0.024267869   0.342971126   0.702027519
Cs       0.199463708   0.300037630   0.067559930
Cs       0.472800371   0.162657577   0.146421391
Cs       0.975732113   0.657028904   0.297972481
Cs       0.837342102   0.527199982   0.646421146
Cs       0.699963438   0.800537428   0.567559043
Cs       0.657029199   0.975732278   0.202027467
Cs       0.162657883   0.472800018   0.353578825
Cs       0.527199629   0.837342408   0.853578638
Cs       0.300036562   0.199462587   0.432440957
Cs       0.342970831   0.024267704   0.797972548
Cs       0.800536307   0.699962370   0.932440078
Sb       0.786416238   0.786415981   0.249999016
Sb       0.500000000  -0.000000000   0.500000000
Sb       0.213583747   0.213584004   0.750000984
Sb      -0.000000000   0.500000000   0.000000000
I       0.380571063   0.720471533   0.582159401
I       0.142838398   0.642480326   0.805382734
I       0.357519322   0.857160717   0.305382987
I       0.840431349   0.721287045   0.443147210
I       0.509678150   0.395151813   0.677784572
I       0.604849286   0.490322662   0.177783376
I       0.216807317   0.870295024   0.534257689
I       0.720471139   0.380570466   0.917840566
I       0.279528861   0.619429504   0.082159404
I       0.857161602   0.357519644   0.194617281
I       0.097045183   0.979850197   0.190619164
I       0.902954810   0.020149829   0.809380836
I       0.129704908   0.783192690   0.034257433
I       0.278712500   0.159568412   0.943147427
I       0.020150100   0.902955268   0.690618701
I       0.783192683   0.129704991   0.465742311
I       0.159568681   0.278712925   0.556852790
I       0.642480648   0.142839283   0.694616983
I       0.979849926   0.097044725   0.309381299
I       0.395150714   0.509677338   0.822216594
I       0.619428907   0.279528467   0.417840629
I       0.870295107   0.216807310   0.965742571
I       0.721287470   0.840431618   0.056852573
I       0.490321850   0.604848187   0.322215458

K_POINTS automatic
2 2 2 0 0 0














