&control
calculation='scf',
prefix='cs2sbcubr6',
pseudo_dir='./',
outdir='./'
disk_io = 'none'
/
&system
ibrav=0,
nat=10,
ntyp=4,
ecutwfc=20,
ecutrho=100,
occupations = 'smearing' 
degauss = 0.005
/
&electrons
conv_thr=1.0d-8
/
&ions
/
&cell
/

ATOMIC_SPECIES
Cs 1.0 Cs.pz-sp-hgh.UPF
Sb 1.0 Sb.pz-dn-rrkjus_psl.0.3.1.UPF
Cu 1.0 Cu.pz-dn-rrkjus_psl.0.2.UPF
Br 1.0 Br.pz-n-rrkjus_psl.0.2.UPF

CELL_PARAMETERS (angstrom)
   5.324113488   0.000000000   5.324113488
   5.324113488   5.324113488   0.000000000
  -0.000000000   5.324113488   5.324113488

ATOMIC_POSITIONS (crystal)
Sb       0.000000000   0.000000000  -0.000000000
Cu       0.500000000   0.500000000   0.500000000
Br       0.738990330   0.261009640   0.738990330
Br       0.261009670   0.738990330   0.261009670
Br       0.738990330   0.261009670   0.261009670
Br       0.261009640   0.738990330   0.738990330
Br       0.738990330   0.738990330   0.261009640
Br       0.261009670   0.261009670   0.738990330
Cs       0.250000000   0.250000000   0.250000000
Cs       0.749999940   0.749999940   0.749999940

K_POINTS automatic
   18   18   18    0    0    0
