&control
calculation='scf',
prefix='sbcl5',
pseudo_dir='./',
outdir='./'
disk_io = 'none'
/
&system
ibrav=0,
nat=12,
ntyp=2,
ecutwfc=20,
ecutrho=100,
occupations = 'smearing' 
degauss = 0.005
/
&electrons
conv_thr=1.0d-8
/
&ions
/
&cell
/

ATOMIC_SPECIES
Sb 1.0 Sb.pz-dn-rrkjus_psl.0.3.1.UPF
Cl 1.0 Cl.pz-n-rrkjus_psl.0.1.UPF

CELL_PARAMETERS {angstrom}
        8.0102462769         0.0000000000         0.0000000000
       -4.0051231384         6.9370767663         0.0000000000
        0.0000000000         0.0000000000         8.4347591400

ATOMIC_POSITIONS {crystal}
Sb	     0.666666985         0.333332986         0.250000000
Sb	     0.333332986         0.666666985         0.750000000
Cl	     0.330426008         0.165213004         0.250000000
Cl	     0.165213004         0.834787011         0.750000000
Cl	     0.333332986         0.666666985         0.031789999
Cl	     0.666666985         0.333332986         0.531790018
Cl	     0.666666985         0.333332986         0.968209982
Cl	     0.333332986         0.666666985         0.468210012
Cl	     0.669574022         0.834787011         0.750000000
Cl	     0.834787011         0.165213004         0.250000000
Cl	     0.834787011         0.669574022         0.250000000
Cl	     0.165213004         0.330426008         0.750000000

K_POINTS automatic
   12   12   12    0    0    0
