&control
calculation='scf',
prefix='bibr3',
pseudo_dir='./',
outdir='./'
disk_io = 'none'
/
&system
ibrav=0,
nat=16,
ntyp=2,
ecutwfc=20,
ecutrho=100,
occupations = 'smearing' 
degauss = 0.005
/
&electrons
conv_thr=1.0d-8
/
&ions
/
&cell
/

ATOMIC_SPECIES
Bi 1.0 Bi.pz-dn-rrkjus_psl.0.2.2.UPF
Br 1.0 Br.pz-n-rrkjus_psl.0.2.UPF

CELL_PARAMETERS {angstrom}
        7.4214787483         0.0000000000         0.0000000000
        0.0000000000        12.7294063568         0.0000000000
       -2.4068166179         0.0000000000         7.1364496740

ATOMIC_POSITIONS {crystal}
Bi     0.480477989         0.332780004         0.991114974
Bi     0.019522000         0.832780004         0.008885000
Bi     0.980477989         0.167219996         0.991114974
Bi     0.519522011         0.667219996         0.008885000
Br     0.216915995         0.184396997         0.750907004
Br     0.286453009         0.507876992         0.763930023
Br     0.229016006         0.327428013         0.217784002
Br     0.270983994         0.827427983         0.782216012
Br     0.213547006         0.007877000         0.236070007
Br     0.716916025         0.315602988         0.750907004
Br     0.283084005         0.684396982         0.249092996
Br     0.786453009         0.992123008         0.763930023
Br     0.729016006         0.172572002         0.217784002
Br     0.770983994         0.672572017         0.782216012
Br     0.713546991         0.492123008         0.236070007
Br     0.783083975         0.815603018         0.249092996

K_POINTS automatic
   15   15   15    0    0    0
