&control
 calculation='nscf',
 prefix='CsPdBr',
 pseudo_dir= './',
 disk_io = 'none'
 verbosity = 'high'
/
&system
 ibrav=0,
 nat= 9,
 ntyp=3,
 ecutwfc =  50,
 nbnd = 200
 nosym = .true.
/
&electrons
 mixing_beta=0.7,
 conv_thr=1.d-10,
/
&ions
/
&cell
/
ATOMIC_SPECIES
Cs  12.0107  Cs.UPF
Pd   195.078 Pd.UPF
Br   35.453 Br.UPF


K_POINTS {crystal_b}
6
0.375 0.750 0.375 20
0.000 0.000 0.000 20
0.000 0.500 0.500 10
0.250 0.750 0.500 20
0.500 0.500 0.500 20
0.000 0.000 0.000 1

CELL_PARAMETERS {angstrom}
5.310649872 0 5.310649872
5.310649872 5.310649872 0
0 5.310649872 5.310649872


ATOMIC_POSITIONS {crystal}
Cs   0.25000   0.25000   0.25000
Cs   0.75000   0.75000   0.75000
Pd   0   0   0
Br   0.23400   0.76600   0.23400
Br   0.76600   0.23400   0.76600
Br   0.23400   0.23400   0.76600
Br   0.76600   0.76600   0.23400
Br   0.76600   0.23400   0.23400
Br   0.23400   0.76600   0.76600

