&control
 calculation='scf',
 prefix='CsPdBr',
 pseudo_dir= './',
 disk_io = 'low'
/
&system
 ibrav=0,
 nat= 9,
 ntyp=3,
 ecutwfc =  50,
 input_dft='hse',
 nqx1 = 4,
 nqx2 = 4,
 nqx3 = 4,
 exxdiv_treatment='gygi-baldereschi'
 x_gamma_extrapolation =.true.
 nbnd = 42
/
&electrons
 mixing_beta=0.7,
 conv_thr=1.d-10,
/
&ions
/
&cell
/
ATOMIC_SPECIES
Cs  12.0107  Cs.UPF
Pd   195.078 Pd.UPF
Br   35.453 Br.UPF


K_POINTS {tpiba}
8
 0.0000000   0.0000000   0.0000000   0.0312500
-0.1767767   0.1767767   0.1767767   0.2500000
 0.3535534  -0.3535534  -0.3535534   0.1250000
 0.0000000   0.3535534   0.0000000   0.1875000
 0.5303301  -0.1767767  -0.5303301   0.7500000
 0.3535534   0.0000000  -0.3535534   0.3750000
 0.0000000  -0.7071068   0.0000000   0.0937500
 0.0000000  -0.7071068   0.3535534   0.1875000


CELL_PARAMETERS {angstrom}
5.310649872 0 5.310649872
5.310649872 5.310649872 0
0 5.310649872 5.310649872


ATOMIC_POSITIONS {crystal}
Cs   0.25000   0.25000   0.25000
Cs   0.75000   0.75000   0.75000
Pd   0   0   0
Br   0.23400   0.76600   0.23400
Br   0.76600   0.23400   0.76600
Br   0.23400   0.23400   0.76600
Br   0.76600   0.76600   0.23400
Br   0.76600   0.23400   0.23400
Br   0.23400   0.76600   0.76600


