&control
calculation='vc-relax',
prefix='agbr3',
pseudo_dir='./',
outdir='./'
disk_io = 'none'
nstep = 500
/
&system
ibrav=0,
nat=16,
ntyp=2,
ecutwfc=80,
ecutrho=400,
occupations = 'smearing' 
degauss = 0.005
/
&electrons
conv_thr=1.0d-8
/
&ions
/
&cell
/

ATOMIC_SPECIES
Ag 1.0 Ag.pbe-dn-rrkjus_psl.0.1.UPF
Br 1.0 Br.pbe-n-rrkjus_psl.0.2.UPF       

CELL_PARAMETERS (angstrom)
   6.304797277   0.000000000   0.078861281
   0.000000000  10.533377847   0.000000000
  -2.669995870   0.000000000   5.421641240

ATOMIC_POSITIONS (crystal)
Ag       0.252666904   0.591109666   0.948796975
Ag       0.247333096   0.091109681   0.051203028
Ag       0.747333096   0.408890334   0.051203028
Ag       0.752666904   0.908890334   0.948796975
Br       0.084369254   0.657958307   0.198193863
Br       0.415630746   0.157958322   0.801806137
Br       0.915630717   0.342041693   0.801806137
Br       0.584369283   0.842041693   0.198193863
Br       0.937389306   0.995343417   0.718771742
Br       0.562610694   0.495343417   0.281228273
Br       0.062610672   0.004656578   0.281228273
Br       0.437389336   0.504656583   0.718771742
Br       0.466069961   0.812651528   0.621031233
Br       1.033930039   0.312651498   0.378968737
Br       0.533930039   0.187348502   0.378968737
Br      -0.033930053   0.687348472   0.621031233

K_POINTS automatic
2 2 2 0 0 0
