&control
calculation='scf',
prefix='cs3bi2i9',
pseudo_dir='./',
outdir='./'
disk_io = 'none'
/
&system
ibrav=0,
nat=28,
ntyp=3,
ecutwfc=20,
ecutrho=100,
occupations = 'smearing' 
degauss = 0.005
/
&electrons
conv_thr=1.0d-8
/
&ions
/
&cell
/

ATOMIC_SPECIES
Cs 1.0 Cs.pz-sp-hgh.UPF
Bi 1.0 Bi.pz-dn-rrkjus_psl.0.2.2.UPF
I 1.0 I.pz-n-rrkjus_psl.0.2.UPF

CELL_PARAMETERS {angstrom}
        8.6494092941         0.0000000000         0.0000000000
        4.3041582286         7.5024331440         0.0000000000
       -0.2124682289         0.3668438620        22.0058771631

ATOMIC_POSITIONS {crystal}
Cs	     0.997228980         0.997228980         0.250000000
Cs	     0.669279993         0.666438997         0.577446997
Cs	     0.002771000         0.002771000         0.750000000
Cs	     0.333561003         0.330720007         0.077446997
Cs	     0.330720007         0.333561003         0.422553003
Cs	     0.666438997         0.669279993         0.922553003
Bi	     0.676443994         0.654039025         0.155757993
Bi	     0.323556006         0.345961004         0.844241977
Bi	     0.345961004         0.323556006         0.655758023
Bi	     0.654039025         0.676443994         0.344242007
I	     0.186173007         0.647816002         0.575048983
I	     0.813826978         0.352185011         0.424950987
I	     0.000619000         0.496066988         0.256817013
I	     0.146020994         0.186403006         0.917126000
I	     0.813597023         0.853978992         0.417126000
I	     0.352185011         0.813826978         0.075048998
I	     0.853978992         0.813597023         0.082874000
I	     0.848686993         0.310124010         0.089342996
I	     0.999381006         0.503933012         0.743183017
I	     0.496066988         0.000619000         0.243183002
I	     0.186403006         0.146020994         0.582874000
I	     0.503933012         0.999381006         0.756816983
I	     0.497204989         0.497204989         0.250000000
I	     0.310124010         0.848686993         0.410656989
I	     0.689876020         0.151313007         0.589343011
I	     0.151313007         0.689876020         0.910656989
I	     0.502794981         0.502794981         0.750000000
I	     0.647816002         0.186173007         0.924951017

K_POINTS automatic
   4   4   4   0   0   0
