&control
calculation='vc-relax',
prefix='sbbr5',
pseudo_dir='./',
outdir='./'
disk_io = 'none'
/
&system
ibrav=0,
nat=12,
ntyp=2,
ecutwfc=80,
ecutrho=400,
occupations = 'smearing' 
degauss = 0.005
/
&electrons
conv_thr=1.0d-8
/
&ions
/
&cell
/

ATOMIC_SPECIES
Sb 1.0 Sb.pbe-dn-rrkjus_psl.0.3.1.UPF
Br 1.0 Br.pbe-n-rrkjus_psl.0.2.UPF

CELL_PARAMETERS {angstrom}
        8.0102462769         0.0000000000         0.0000000000
       -4.0051231384         6.9370767663         0.0000000000
        0.0000000000         0.0000000000         8.4347591400

ATOMIC_POSITIONS {crystal}
Sb           0.666666985         0.333332986         0.250000000
Sb           0.333332986         0.666666985         0.750000000
Br           0.330426008         0.165213004         0.250000000
Br           0.165213004         0.834787011         0.750000000
Br           0.333332986         0.666666985         0.031789999
Br           0.666666985         0.333332986         0.531790018
Br           0.666666985         0.333332986         0.968209982
Br           0.333332986         0.666666985         0.468210012
Br           0.669574022         0.834787011         0.750000000
Br           0.834787011         0.165213004         0.250000000
Br           0.834787011         0.669574022         0.250000000
Br           0.165213004         0.330426008         0.750000000

K_POINTS automatic
7 7 7 0 0 0
