&control
calculation='scf',
prefix='ag2br3',
pseudo_dir='./',
outdir='./'
disk_io = 'none'
/
&system
ibrav=0,
nat=30,
ntyp=2,
ecutwfc=20,
ecutrho=100,
occupations = 'smearing' 
degauss = 0.005
/
&electrons
conv_thr=1.0d-8
/
&ions
/
&cell
/

ATOMIC_SPECIES
Ag 1.0 Ag.pz-dn-rrkjus_psl.0.1.UPF
Br 1.0 Br.pz-n-rrkjus_psl.0.2.UPF

CELL_PARAMETERS {angstrom}
        7.0253968239         0.0000000000         0.0000000000
        0.0000000000         7.0253968239         0.0000000000
        0.0000000000         0.0000000000         7.0253968239

ATOMIC_POSITIONS {crystal}
Ag     0.666666985         0.333332986         0.993664026
Ag     0.000000000         0.000000000         0.839668989
Ag     0.000000000         0.000000000         0.160330996
Ag     0.333332986         0.666666985         0.006336000
Ag     0.333332986         0.666666985         0.326997995
Ag     0.666666985         0.333332986         0.173002005
Ag     0.666666985         0.333332986         0.493663996
Ag     0.000000000         0.000000000         0.339668989
Ag     0.000000000         0.000000000         0.660331011
Ag     0.333332986         0.666666985         0.506335974
Ag     0.333332986         0.666666985         0.826997995
Ag     0.666666985         0.333332986         0.673002005
Br     0.011149000         0.666666985         0.916666985
Br     0.655516982         0.988851011         0.916666985
Br     0.333332986         0.344482988         0.916666985
Br     0.666666985         0.655516982         0.083333001
Br     0.344482988         0.011149000         0.083333001
Br     0.988851011         0.333332986         0.083333001
Br     0.677815974         0.000000000         0.250000000
Br     0.322183996         0.322183996         0.250000000
Br     0.000000000         0.677815974         0.250000000
Br     0.333332986         0.988851011         0.416667014
Br     0.011149000         0.344482988         0.416667014
Br     0.655516982         0.666666985         0.416667014
Br     0.344482988         0.333332986         0.583333015
Br     0.988851011         0.655516982         0.583333015
Br     0.666666985         0.011149000         0.583333015
Br     0.000000000         0.322183996         0.750000000
Br     0.677815974         0.677815974         0.750000000
Br     0.322183996         0.000000000         0.750000000

K_POINTS automatic
   3   3   3   0   0   0
