&control
calculation='scf',
prefix='cui',
pseudo_dir='./',
outdir='./'
disk_io = 'none'
/
&system
ibrav=0,
nat=12,
ntyp=2,
ecutwfc=20,
ecutrho=100,
occupations = 'smearing' 
degauss = 0.005
/
&electrons
conv_thr=1.0d-8
/
&ions
/
&cell
/

ATOMIC_SPECIES
Cu 1.0 Cu.pz-dn-rrkjus_psl.0.2.UPF
I 1.0 I.pz-n-rrkjus_psl.0.2.UPF

CELL_PARAMETERS {angstrom}
        4.1677646637         0.0000000000         0.0000000000
       -2.0838823318         3.6093900758         0.0000000000
        0.0000000000         0.0000000000        22.3724060059

ATOMIC_POSITIONS {crystal}
Cu	     0.000000000         0.000000000         0.781854987
Cu	     0.333332986         0.666666985         0.051298000
Cu	     0.000000000         0.000000000         0.448610008
Cu	     0.000000000         0.000000000         0.115052000
Cu	     0.666666985         0.333332986         0.718136013
Cu	     0.333332986         0.666666985         0.384963006
I	     0.000000000         0.000000000         0.331741005
I	     0.000000000         0.000000000         0.664983988
I	     0.333332986         0.666666985         0.168226004
I	     0.333332986         0.666666985         0.501856029
I	     0.666666985         0.333332986         0.835072994
I	     0.000000000         0.000000000         0.998175979

K_POINTS automatic
   7   7   7   0   0   0
