&control
calculation='scf',
prefix='cl',
pseudo_dir='./',
outdir='./'
disk_io = 'none'
/
&system
ibrav=0,
nat=16,
ntyp=1,
ecutwfc=20,
ecutrho=100,
occupations = 'smearing' 
degauss = 0.005
/
&electrons
conv_thr=1.0d-8
/
&ions
/
&cell
/

ATOMIC_SPECIES
Cl 1.0 Cl.pbe-n-rrkjus_psl.0.1.UPF 

CELL_PARAMETERS {angstrom}
       11.7658090591         0.0000000000         0.0000000000
        0.0000000000        11.7658090591         0.0000000000
        0.0000000000         0.0000000000         8.2035255432


ATOMIC_POSITIONS {crystal}
Cl     0.844483018         0.106098004         0.639231980
Cl     0.344482988         0.393902004         0.360767990
Cl     0.606097996         0.344482988         0.639231980
Cl     0.393902004         0.655516982         0.639231980
Cl     0.344482988         0.606097996         0.860768020
Cl     0.844483018         0.893902004         0.139231995
Cl     0.655516982         0.393902004         0.860768020
Cl     0.155516997         0.106098004         0.139231995
Cl     0.393902004         0.344482988         0.139231995
Cl     0.155516997         0.893902004         0.639231980
Cl     0.893902004         0.155516997         0.860768020
Cl     0.893902004         0.844483018         0.360767990
Cl     0.106098004         0.155516997         0.360767990
Cl     0.106098004         0.844483018         0.860768020
Cl     0.655516982         0.606097996         0.360767990
Cl     0.606097996         0.655516982         0.139231995                            
K_POINTS automatic
   1   1   1   0   0   0
