&control
calculation='scf',
prefix='cs5sb8',
pseudo_dir='./',
outdir='./'
disk_io = 'none'
/
&system
ibrav=0,
nat=52,
ntyp=2,
ecutwfc=20,
ecutrho=100,
occupations = 'smearing' 
degauss = 0.005
/
&electrons
conv_thr=1.0d-8
/
&ions
/
&cell
/

ATOMIC_SPECIES
Cs 1.0 Cs.pz-sp-hgh.UPF
Sb 1.0 Sb.pz-dn-rrkjus_psl.0.3.1.UPF

CELL_PARAMETERS {angstrom}
        7.4706811905         0.0000000000         0.0000000000
        0.0000000000        11.6603832245         0.0000000000
       -3.2699972296         0.0000000000        28.0202749798

ATOMIC_POSITIONS {crystal}
Cs	     0.476808012         0.570906997         0.573862016
Cs	     0.742524981         0.396923989         0.021289000
Cs	     0.236169994         0.807511985         0.309893996
Cs	     0.257474989         0.603075981         0.978711009
Cs	     0.713500977         0.536455989         0.742388010
Cs	     0.763830006         0.192488000         0.690105975
Cs	     0.974375010         0.813910007         0.622255027
Cs	     0.713500977         0.963544011         0.242387995
Cs	     0.974375010         0.686089993         0.122254997
Cs	     0.236169994         0.692488015         0.809894025
Cs	     0.025625000         0.186090007         0.377745003
Cs	     0.025625000         0.313910007         0.877744973
Cs	     0.286498994         0.463544011         0.257611990
Cs	     0.763830006         0.307511985         0.190106004
Cs	     0.476808012         0.929093003         0.073862001
Cs	     0.742524981         0.103076003         0.521288991
Cs	     0.523191988         0.429093003         0.426138014
Cs	     0.257474989         0.896924019         0.478711009
Cs	     0.523191988         0.070906997         0.926137984
Cs	     0.286498994         0.036456000         0.757611990
Sb	     0.484723985         0.699985027         0.183506995
Sb	     0.760921001         0.752331972         0.475609004
Sb	     0.304701000         0.142192006         0.162967995
Sb	     0.195286006         0.129267007         0.255887002
Sb	     0.808516026         0.639100015         0.887181997
Sb	     0.013267000         0.524900019         0.374693990
Sb	     0.695299029         0.642192006         0.337031990
Sb	     0.060940001         0.596998990         0.472371995
Sb	     0.515276015         0.199984998         0.316493005
Sb	     0.013267000         0.975099981         0.874693990
Sb	     0.191484004         0.139100000         0.612818003
Sb	     0.484723985         0.800014973         0.683507025
Sb	     0.195286006         0.370732993         0.755886972
Sb	     0.515276015         0.300015002         0.816492975
Sb	     0.986733019         0.475100011         0.625306010
Sb	     0.531342983         0.039105002         0.391088992
Sb	     0.239078999         0.252332002         0.024390999
Sb	     0.239078999         0.247667998         0.524390996
Sb	     0.808516026         0.860899985         0.387181997
Sb	     0.695299029         0.857807994         0.837032020
Sb	     0.804714024         0.629266977         0.244112998
Sb	     0.804714024         0.870733023         0.744113028
Sb	     0.939059973         0.403001010         0.527628005
Sb	     0.531342983         0.460895002         0.891089022
Sb	     0.060940001         0.903001010         0.972371995
Sb	     0.468656987         0.539104998         0.108911000
Sb	     0.986733019         0.024900001         0.125305995
Sb	     0.939059973         0.096998997         0.027628001
Sb	     0.191484004         0.360900015         0.112818003
Sb	     0.468656987         0.960895002         0.608910978
Sb	     0.760921001         0.747668028         0.975609004
Sb	     0.304701000         0.357807994         0.662967980

K_POINTS automatic
   14   14   14    0    0    0
