&control
calculation='vc-relax',
prefix='agi3',
pseudo_dir='./',
outdir='./'
disk_io = 'none'
nstep = 500
/
&system
ibrav=0,
nat=16,
ntyp=2,
ecutwfc=80,
ecutrho=400,
occupations = 'smearing' 
degauss = 0.005
/
&electrons
conv_thr=1.0d-8
/
&ions
/
&cell
/

ATOMIC_SPECIES
Ag 1.0 Ag.pbe-dn-rrkjus_psl.0.1.UPF
I 1.0 I.pbe-n-rrkjus_psl.0.2.UPF

CELL_PARAMETERS (angstrom)
   6.459672862   0.000000000   0.119651665
   0.000000000  10.580921324   0.000000000
  -2.698691657   0.000000000   5.500480296

ATOMIC_POSITIONS (crystal)
Ag       0.261547849   0.589829436   0.954467788
Ag       0.238452151   0.089829451   0.045532215
Ag       0.738452151   0.410170564   0.045532215
Ag       0.761547849   0.910170564   0.954467788
I       0.106251917   0.657944875   0.204139699
I       0.393748083   0.157944890   0.795860301
I       0.893748054   0.342055125   0.795860301
I       0.606251946   0.842055125   0.204139699
I       0.936581987   0.994600354   0.721662228
I       0.563418013   0.494600354   0.278337787
I       0.063417991   0.005399641   0.278337787
I       0.436582017   0.505399646   0.721662228
I       0.475913724   0.819403106   0.634409058
I       1.024086276   0.319403076   0.365590912
I       0.524086276   0.180596924   0.365590912
I      -0.024086290   0.680596894   0.634409058

K_POINTS automatic
2 2 2 0 0 0
