&control
calculation='vc-relax',
prefix='sb9br2',
pseudo_dir='./',
outdir='./'
disk_io = 'none'
/
&system
ibrav=0,
nat=22,
ntyp=2,
ecutwfc=80,
ecutrho=400,
occupations = 'smearing' 
degauss = 0.005
/
&electrons
conv_thr=1.0d-8
/
&ions
/
&cell
/

ATOMIC_SPECIES
Sb 1.0 Sb.pbe-dn-rrkjus_psl.0.3.1.UPF
Br 1.0 Br.pbe-n-rrkjus_psl.0.2.UPF

CELL_PARAMETERS (angstrom)
  13.199722385   0.000000000   0.088240959
   0.000000000   4.407904137   0.000000000
  -6.272056959   0.000000000  13.190640032

ATOMIC_POSITIONS (crystal)
Sb       0.505905301   0.250000000   0.336060407
Sb       0.494094669   0.750000000   0.663939563
Sb       0.613602709   0.250000000   0.812426106
Sb       0.386397321   0.750000000   0.187573880
Sb       0.805488048   0.250000000   0.747963412
Sb       0.194511952   0.750000000   0.252036588
Sb       0.073816189   0.250000000   0.104237304
Sb       0.926183804   0.750000000   0.895762674
Sb       0.877082794   0.250000000   0.164136180
Sb       0.122917191   0.750000000   0.835863835
Sb       0.240847457   0.250000000   0.984261109
Sb       0.759152528   0.750000000   0.015738882
Sb       0.438956791   0.250000000   0.926176874
Sb       0.561043179   0.750000000   0.073823104
Sb       0.298689938   0.750000000   0.722376630
Sb       0.701310062   0.250000000   0.277623370
Sb       0.820407207   0.750000000   0.429665036
Sb       0.179592823   0.250000000   0.570334964
Br       0.661520386   0.750000000   0.536658200
Br       0.338479614   0.250000000   0.463341829
Br       0.019084309   0.750000000   0.372465258
Br       0.980915697   0.250000000   0.627534742

K_POINTS automatic
6 6 6 0 0 0
