&control
calculation='vc-relax',
prefix='csau2br3',
pseudo_dir='./',
outdir='./'
disk_io = 'none'
/
&system
ibrav=0,
nat=24,
ntyp=3,
ecutwfc=80,
ecutrho=400,
occupations = 'smearing' 
degauss = 0.005
/
&electrons
conv_thr=1.0d-8
/
&ions
/
&cell
/

ATOMIC_SPECIES
Cs 1.0 Cs.pbe-sp-hgh.UPF
Au 1.0 Au.pbe-dn-rrkjus_psl.0.1.UPF
Br 1.0 Br.pbe-n-rrkjus_psl.0.2.UPF

CELL_PARAMETERS (angstrom)
   5.550015556   0.000000000  -0.000000682
   0.000000000   9.667319607   0.000000000
  -0.000002140   0.000000000  11.910695220

ATOMIC_POSITIONS (crystal)
Cs       0.250000849   0.993722437   0.706792916
Cs       0.749999151   0.006277584   0.293207084
Cs       0.749999151   0.493722407   0.793207084
Cs       0.250000849   0.506277563   0.206792916
Au       0.500244631   0.307901239   0.500187763
Au       0.499755399   0.807901239  -0.000187773
Au      -0.000244263   0.192096701   1.000188023
Au       1.000244245   0.692096686   0.499811977
Au      -0.000244263   0.307903314   0.500187993
Au       0.499755399   0.692098761   0.499812207
Au       1.000244245   0.807903314  -0.000188003
Au       0.500244631   0.192098776   1.000187793
Br       0.250000745   0.808539582   0.357539507
Br       0.250000745   0.691460418   0.857539507
Br       0.749999255   0.191460432   0.642460493
Br       0.749999255   0.308539553   0.142460493
Br       0.250000739   0.203015509   0.351832315
Br       0.749999261   0.796984506   0.648167685
Br       0.749999261   0.703015494   0.148167670
Br       0.250000739   0.296984476   0.851832315
Br       0.250003283   0.499296784   0.608036386
Br       0.749996717   0.500703216   0.391963614
Br       0.749996717   0.999296784   0.891963614
Br       0.250003283   0.000703225   0.108036378

K_POINTS automatic
3 3 3 0 0 0 
