&control
calculation='vc-relax',
prefix='cs3au2i5',
pseudo_dir='./',
outdir='./'
disk_io = 'none'
/
&system
ibrav=0,
nat=40,
ntyp=3,
ecutwfc=80,
ecutrho=400,
occupations = 'smearing' 
degauss = 0.005
/
&electrons
conv_thr=1.0d-8
/
&ions
/
&cell
/

ATOMIC_SPECIES
Cs 1.0 Cs.pbe-sp-hgh.UPF
Au 1.0 Au.pbe-dn-rrkjus_psl.0.1.UPF
I 1.0 I.pbe-n-rrkjus_psl.0.2.UPF

CELL_PARAMETERS (angstrom)
   9.794996055   0.000000000   0.000028849
   0.000000000  11.284301345   0.000000000
   0.000040427   0.000000000  13.748505725

ATOMIC_POSITIONS (crystal)
Cs       0.553976616   0.988782637   0.822412537
Cs       0.053977511   0.511213122   0.677587760
Cs       0.446023384   0.488782637   0.177587448
Cs       0.946022497   0.011213108   0.322412240
Cs       0.446023384   0.011217349   0.177587448
Cs       0.946022497   0.488786878   0.322412240
Cs       0.553976616   0.511217363   0.822412537
Cs       0.053977511   0.988786878   0.677587760
Cs       0.913561459   0.750000000   0.051480581
Cs       0.413557243   0.750000000   0.448520179
Cs       0.086438511   0.250000000   0.948519445
Cs       0.586442787   0.250000000   0.551479791
Au       0.734690885   0.250000000   0.126608355
Au       0.286683952   0.750000000   0.047940333
Au       0.786690879   0.750000000   0.452055135
Au       0.713316048   0.250000000   0.952059685
Au       0.213309121   0.250000000   0.547944835
Au       0.265309086   0.750000000   0.873391675
Au       0.765356193   0.750000000   0.626605036
Au       0.234643821   0.250000000   0.373394934
I        0.344374620   0.750000000   0.703175523
I        0.844388225   0.750000000   0.796829262
I        0.655625410   0.250000000   0.296824507
I        0.155611760   0.250000000   0.203170723
I        0.959390063   0.250000000   0.510274874
I        0.202958737   0.750000000   0.220683314
I        0.459388540   0.250000000   0.989719207
I        0.040609964   0.750000000   0.489725097
I        0.540611430   0.750000000   0.010280813
I        0.297045206   0.250000000   0.720683499
I        0.797041278   0.250000000   0.779316671
I        0.702954794   0.750000000   0.279316531
I        0.693837048   0.556891136   0.548478316
I        0.193838101   0.943114569   0.951523474
I        0.306162952   0.056891106   0.451521684
I        0.806161899   0.443114599   0.048476518
I        0.306162952   0.443108894   0.451521684
I        0.806161899   0.056885401   0.048476518
I        0.693837048   0.943108864   0.548478316
I        0.193838101   0.556885431   0.951523474

K_POINTS automatic
2 2 2 0 0 0
