&control
calculation='scf',
prefix='cubr',
pseudo_dir='./',
outdir='./'
disk_io = 'none'
/
&system
ibrav=0,
nat=2,
ntyp=2,
ecutwfc=20,
ecutrho=100,
occupations = 'smearing' 
degauss = 0.005
/
&electrons
conv_thr=1.0d-8
/
&ions
/
&cell
/

ATOMIC_SPECIES
Cu 1.0 Cu.pz-dn-rrkjus_psl.0.2.UPF
Br 1.0 Br.pz-n-rrkjus_psl.0.2.UPF

CELL_PARAMETERS {angstrom}
        4.0298123360         0.0000000000         0.0000000000
        2.0149061680         3.4899198554         0.0000000000
        2.0149061680         1.1633066185         3.2903279941

ATOMIC_POSITIONS {crystal}
Cu	     0.250000000         0.250000000         0.250000000
Br	     0.000000000         0.000000000         0.000000000

K_POINTS automatic
   22   22   22    0    0    0
