&control
calculation='vc-relax',
prefix='cs3au2cl11',
pseudo_dir='./',
outdir='./'
disk_io = 'none'
/
&system
ibrav=0,
nat=64,
ntyp=3,
ecutwfc=80,
ecutrho=400,
occupations = 'smearing' 
degauss = 0.005
/
&electrons
conv_thr=1.0d-8
/
&ions
/
&cell
/

ATOMIC_SPECIES
Cs 1.0 Cs.pbe-sp-hgh.UPF
Au 1.0 Au.pbe-dn-rrkjus_psl.0.1.UPF
Cl 1.0 Cl.pbe-n-rrkjus_psl.0.1.UPF

CELL_PARAMETERS (angstrom)
   7.286379407   0.000000000  -0.037944434
   0.000000000  15.390414056   0.000000000
  -1.284383403   0.000000000  17.707603631

ATOMIC_POSITIONS (crystal)
Cs       0.253810431   0.629028093   0.926453455
Cs       0.253810431   0.870971907   0.426453455
Cs       0.754479874   0.016755162   0.100544220
Cs       0.754479874   0.483244834   0.600544242
Cs       0.245520126   0.516755136   0.399455788
Cs       0.744650899   0.765501719   0.676365655
Cs       0.744650899   0.734498281   0.176365670
Cs       0.746189539   0.129028093   0.573546545
Cs       0.245520126   0.983244864   0.899455758
Cs       0.255349071   0.265501719   0.823634345
Cs       0.746189539   0.370971907   0.073546560
Cs       0.255349071   0.234498266   0.323634345
Au       0.262559833   0.311218798   0.566748652
Au       0.246093226   0.498281378   0.169943788
Au       0.753906789   0.998281378   0.330056226
Au       0.753906789   0.501718622   0.830056226
Au       0.246093226   0.001718633   0.669943774
Au       0.737440167   0.688781202   0.433251318
Au       0.737440167   0.811218798   0.933251348
Au       0.262559833   0.188781217   0.066748682
Cl       0.596567089   0.198644654   0.202634006
Cl       0.258487338   0.157379323   0.542562076
Cl       0.068618240   0.831804928   0.068290712
Cl       0.014529089   0.571196208   0.090074709
Cl       0.983572610   0.797873818   0.852727615
Cl       0.985470927   0.071196185   0.409925291
Cl       0.478728439   0.938574805   0.599085974
Cl       0.745990627   0.535560742   0.411322998
Cl       0.014529089   0.928803792   0.590074739
Cl       0.511023969   0.172684416   0.986788227
Cl       0.012421334   0.434276622   0.239039449
Cl       0.237743696   0.733027429   0.684000112
Cl       0.987578660   0.934276622   0.260960551
Cl       0.403432881   0.698644639   0.297366009
Cl       0.745990627   0.964439258   0.911322968
Cl       0.237743696   0.766972571   0.184000142
Cl       0.012421334   0.065723386   0.739039449
Cl       0.479216604   0.424805187   0.248382529
Cl       0.983572610   0.702126182   0.352727615
Cl       0.520783426   0.924805217   0.251617471
Cl       0.068618240   0.668195072   0.568290704
Cl       0.511023969   0.327315599   0.486788257
Cl       0.016427408   0.297873818   0.647272385
Cl       0.488976031   0.827315599   0.013211748
Cl       0.762256304   0.233027444   0.815999888
Cl       0.478728439   0.561425195   0.099085959
Cl       0.741512692   0.657379353   0.957437924
Cl       0.488976031   0.672684401   0.513211773
Cl       0.987578660   0.565723378   0.760960551
Cl       0.931381737   0.331804928   0.431709296
Cl       0.016427408   0.202126197   0.147272400
Cl       0.596567089   0.301355361   0.702634021
Cl       0.403432881   0.801355361   0.797365979
Cl       0.254009373   0.035560713   0.088677002
Cl       0.741512692   0.842620647   0.457437954
Cl       0.521271531   0.061425180   0.400914056
Cl       0.762256304   0.266972571   0.315999858
Cl       0.985470927   0.428803822   0.909925261
Cl       0.254009373   0.464439287   0.588677032
Cl       0.521271531   0.438574835   0.900914026
Cl       0.931381737   0.168195087   0.931709296
Cl       0.258487338   0.342620677   0.042562046
Cl       0.479216604   0.075194805   0.748382529
Cl       0.520783426   0.575194783   0.751617471

K_POINTS automatic
2 2 2 0 0 0
