&control
calculation='scf',
prefix='cs2bicui6',
pseudo_dir='./',
outdir='./'
disk_io = 'none'
/
&system
ibrav=0,
nat=10,
ntyp=4,
ecutwfc=20,
ecutrho=100,
occupations = 'smearing' 
degauss = 0.005
/
&electrons
conv_thr=1.0d-8
/
&ions
/
&cell
/

ATOMIC_SPECIES
Cs 1.0 Cs.pz-sp-hgh.UPF
Bi 1.0 Bi.pz-dn-rrkjus_psl.0.2.2.UPF
Cu 1.0 Cu.pz-dn-rrkjus_psl.0.2.UPF
I 1.0 I.pz-n-rrkjus_psl.0.2.UPF

CELL_PARAMETERS {angstrom}
   5.764454528  -0.000000000   5.764454528
   5.764454528   5.764454528  -0.000000000
   0.000000000   5.764454528   5.764454528

ATOMIC_POSITIONS (crystal)
Bi      -0.000000000   0.000000000   0.000000000
Cu       0.500000000   0.500000000   0.500000000
I        0.735991396   0.264008574   0.735991396
I        0.264008604   0.735991396   0.264008604
I        0.735991396   0.264008604   0.264008604
I        0.264008574   0.735991396   0.735991396
I        0.735991396   0.735991396   0.264008574
I        0.264008604   0.264008604   0.735991396
Cs       0.250000000   0.250000000   0.250000000
Cs       0.749999940   0.749999940   0.749999940

K_POINTS automatic

   10   10   10    0    0    0
