&control
calculation='vc-relax',
prefix='cscubr2',
pseudo_dir='./',
outdir='./'
disk_io = 'none'
/
&system
ibrav=0,
nat=8,
ntyp=3,
ecutwfc=80,
ecutrho=400,
occupations = 'smearing' 
degauss = 0.005
/
&electrons
conv_thr=1.0d-8
/
&ions
/
&cell
/

ATOMIC_SPECIES
Cs 1.0 Cs.pbe-sp-hgh.UPF
Cu 1.0 Cu.pbe-dn-rrkjus_psl.0.2.UPF
Br 1.0 Br.pbe-n-rrkjus_psl.0.2.UPF

CELL_PARAMETERS (angstrom)
   4.663175566   0.000000000   0.000000000
   0.000000000   4.663175566   0.000000000
   0.000000000   0.000000000   9.093990611

ATOMIC_POSITIONS (crystal)
Cs       0.000000000   0.500000000   0.707977986
Cs       0.500000000   0.000000000   0.292022014
Cu       0.000000000   0.500000000   0.093826155
Cu       0.500000000   0.000000000   0.906173815
Br       0.500000000   0.500000000  -0.000000000
Br       0.000000000   0.500000000   0.338145528
Br       0.500000000   0.000000000   0.661854442
Br       0.000000000   0.000000000  -0.000000000

K_POINTS automatic
7 7 7 0 0 0
