&control
calculation='scf',
prefix='bibr',
pseudo_dir='./',
outdir='./'
disk_io = 'none'
/
&system
ibrav=0,
nat=16,
ntyp=2,
ecutwfc=20,
ecutrho=100,
occupations = 'smearing' 
degauss = 0.005
/
&electrons
conv_thr=1.0d-8
/
&ions
/
&cell
/

ATOMIC_SPECIES
Bi 1.0 Bi.pz-dn-rrkjus_psl.0.2.2.UPF
Br 1.0 Br.pz-n-rrkjus_psl.0.2.UPF

CELL_PARAMETERS {angstrom}
        7.6219992638         0.0000000000         0.0000000000
       -6.4269795041         4.0974147009         0.0000000000
       -6.7321474359         1.9634451961        20.3175911592

ATOMIC_POSITIONS {crystal}
Bi     0.826135993         0.173864007         0.005544000
Bi     0.173864007         0.826135993         0.994455993
Bi     0.821121991         0.178877994         0.494924992
Bi     0.794197023         0.205803007         0.856182992
Bi     0.205803007         0.794197023         0.143816993
Bi     0.178877994         0.821121991         0.505074978
Bi     0.929234982         0.070765004         0.644877017
Bi     0.070765004         0.929234982         0.355123013
Br     0.852258980         0.147741005         0.182064995
Br     0.549669981         0.450329989         0.618233025
Br     0.559089005         0.440910995         0.113040999
Br     0.440910995         0.559089005         0.886959016
Br     0.450329989         0.549669981         0.381767005
Br     0.317860991         0.682138979         0.681719005
Br     0.682138979         0.317860991         0.318280995
Br     0.147741005         0.852258980         0.817934990

K_POINTS automatic
