&control
calculation='vc-relax',
prefix='sb6i7',
pseudo_dir='./',
outdir='./'
disk_io = 'none'
/
&system
ibrav=0,
nat=104,
ntyp=2,
ecutwfc=80,
ecutrho=400,
occupations = 'smearing' 
degauss = 0.005
/
&electrons
conv_thr=1.0d-8
/
&ions
/
&cell
/

ATOMIC_SPECIES
Sb 1.0 Sb.pbe-dn-rrkjus_psl.0.3.1.UPF
I 1.0 I.pbe-n-rrkjus_psl.0.2.UPF

CELL_PARAMETERS (angstrom)
   8.838315613   0.000000000   0.000000000
   0.000000000  17.831911478   0.000000000
   0.000000000   0.000000000  29.169228175

ATOMIC_POSITIONS (crystal)
Sb       0.793738666   0.823375835   0.853703126
Sb       0.793738666   0.176624165   0.146296859
Sb       0.706261334   0.323375835   0.646296874
Sb       0.706261334   0.676624165   0.353703126
Sb       0.206261349   0.176624165   0.146296859
Sb       0.206261349   0.823375835   0.853703126
Sb       0.293738636   0.676624165   0.353703126
Sb       0.293738636   0.323375835   0.646296874
Sb       0.811929036   0.754501900   0.960174595
Sb       0.811929036   0.245498085   0.039825383
Sb       0.688070964   0.254501900   0.539825405
Sb       0.688070964   0.745498100   0.460174624
Sb       0.188070964   0.245498085   0.039825383
Sb       0.188070964   0.754501900   0.960174595
Sb       0.311929036   0.745498100   0.460174624
Sb       0.311929036   0.254501900   0.539825405
Sb       0.773175399   0.659437300   0.863929274
Sb       0.773175399   0.340562700   0.136070711
Sb       0.726824601   0.159437285   0.636070726
Sb       0.726824601   0.840562700   0.363929274
Sb       0.226824601   0.340562700   0.136070711
Sb       0.226824601   0.659437300   0.863929274
Sb       0.273175399   0.840562700   0.363929274
Sb       0.273175399   0.159437285   0.636070726
Sb       0.000000000   0.623954370   0.941142384
Sb       0.000000000   0.376045630   0.058857630
Sb       0.500000000   0.123954385   0.558857616
Sb       0.500000000   0.876045630   0.441142384
Sb       0.000000000   0.886180365   0.923313604
Sb      -0.000000000   0.113819635   0.076686404
Sb       0.500000000   0.386180365   0.576686396
Sb       0.500000000   0.613819635   0.423313604
Sb       0.000000000   0.717874096   0.798639879
Sb       0.000000000   0.282125934   0.201360106
Sb       0.500000000   0.217874081   0.701360121
Sb       0.500000000   0.782125904   0.298639879
Sb       0.000000000   0.852656691   0.634649471
Sb       0.000000000   0.147343302   0.365350529
Sb       0.500000000   0.352656691   0.865350529
Sb       0.500000000   0.647343309   0.134649464
Sb       0.000000000   0.364367549   0.872550129
Sb       0.000000000   0.635632422   0.127449856
Sb       0.500000000   0.864367578   0.627449871
Sb       0.500000000   0.135632437   0.372550129
Sb       0.000000000   0.537189151   0.579322770
Sb       0.000000000   0.462810820   0.420677230
Sb       0.500000000   0.037189169   0.920677230
Sb       0.500000000   0.962810849   0.079322785
I        0.757025388   0.774950189   0.684578392
I        0.757025388   0.225049796   0.315421608
I        0.742974612   0.274950189   0.815421608
I        0.742974612   0.725049811   0.184578392
I        0.242974612   0.225049796   0.315421608
I        0.242974612   0.774950189   0.684578392
I        0.257025388   0.725049811   0.184578392
I        0.257025388   0.274950189   0.815421608
I        0.756333630   0.532251433   0.646606394
I        0.756333630   0.467748567   0.353393636
I        0.743666370   0.032251426   0.853393606
I        0.743666370   0.967748567   0.146606364
I        0.243666370   0.467748567   0.353393636
I        0.243666370   0.532251433   0.646606394
I        0.256333630   0.967748567   0.146606364
I        0.256333630   0.032251426   0.853393606
I        0.739835257   0.930098949   0.569011987
I        0.739835257   0.069901029   0.430988013
I        0.760164743   0.430098979   0.930988013
I        0.760164743   0.569901051   0.069011995
I        0.260164743   0.069901029   0.430988013
I        0.260164743   0.930098949   0.569011987
I        0.239835242   0.569901051   0.069011995
I        0.239835242   0.430098979   0.930988013
I        0.747770482   0.000000000  -0.000000000
I        0.752229518   0.500000000   0.500000000
I        0.252229518   0.000000000  -0.000000000
I        0.247770482   0.500000000   0.500000000
I        0.000000000   0.138655081   0.550491114
I        0.000000000   0.861344919   0.449508856
I        0.500000000   0.638655081   0.949508886
I        0.500000000   0.361344919   0.050491133
I        0.000000000   0.360107397   0.582215922
I        0.000000000   0.639892633   0.417784108
I        0.500000000   0.860107367   0.917784078
I        0.500000000   0.139892618   0.082215900
I        0.000000000   0.206756920   0.705266641
I        0.000000000   0.793243065   0.294733359
I        0.500000000   0.706756935   0.794733359
I        0.500000000   0.293243095   0.205266641
I        0.000000000   0.218542119   0.948135386
I        0.000000000   0.781457851   0.051864625
I        0.500000000   0.718542149   0.551864614
I        0.500000000   0.281457881   0.448135386
I       -0.000000000   0.977865888   0.692647369
I        0.000000000   0.022134139   0.307352601
I        0.500000000   0.477865858   0.807352631
I        0.500000000   0.522134112   0.192647399
I        0.000000000   0.701173314   0.560419897
I        0.000000000   0.298826656   0.439580073
I        0.500000000   0.201173329   0.939580103
I        0.500000000   0.798826686   0.060419920
I        0.000000000   0.484476282   0.809356101
I        0.000000000   0.515523688   0.190643885
I        0.500000000   0.984476312   0.690643899
I        0.500000000   0.015523711   0.309356101

K_POINTS automatic
2 2 2 0 0 0
