&control
calculation='vc-relax',
prefix='biaucl6',
pseudo_dir='./',
outdir='./'
disk_io = 'none'
/
&system
ibrav=0,
nat=32,
ntyp=3,
ecutwfc=80,
ecutrho=400,
occupations = 'smearing' 
degauss = 0.005
/
&electrons
conv_thr=1.0d-8
/
&ions
/
&cell
/

ATOMIC_SPECIES
Bi 1.0 Bi.pbe-dn-rrkjus_psl.0.2.2.UPF
Au 1.0 Au.pbe-dn-rrkjus_psl.0.1.UPF
Cl 1.0 Cl.pbe-n-rrkjus_psl.0.1.UPF

CELL_PARAMETERS {angstrom}
        7.6923089027         0.0000000000         0.0000000000
       -3.7827707734         9.4429265458         0.0000000000
       -1.5705394968        -4.3432613840        13.5808329926

ATOMIC_POSITIONS {crystal}
Bi           0.596029997         0.930540979         0.620670974
Bi           0.032021001         0.684904993         0.128373995
Bi           0.403970003         0.069458999         0.379328996
Bi           0.967979014         0.315095007         0.871626019
Au           0.294147998         0.631115019         0.765963018
Au           0.500000000         0.500000000         0.500000000
Au           0.705851972         0.368885010         0.234036997
Au           0.000000000         0.000000000         0.000000000
Cl           0.775987983         0.094783001         0.966827989
Cl           0.728390992         0.158213004         0.257411003
Cl           0.271609008         0.841786981         0.742588997
Cl           0.768505991         0.800023019         0.030128000
Cl           0.613146007         0.188584000         0.741439998
Cl           0.313726008         0.416758001         0.786783993
Cl           0.686273992         0.583241999         0.213216007
Cl           0.296855003         0.620482981         0.497274995
Cl           0.231493995         0.199976996         0.969871998
Cl           0.758629024         0.723814011         0.521726012
Cl           0.224012002         0.905216992         0.033172000
Cl           0.733784974         0.049472999         0.486310989
Cl           0.609112024         0.723953009         0.749683022
Cl           0.956683993         0.055087999         0.725188971
Cl           0.241371006         0.276185989         0.478273988
Cl           0.386853993         0.811415970         0.258560002
Cl           0.976450980         0.538060009         0.781772017
Cl           0.756989002         0.434201002         0.974846005
Cl           0.243010998         0.565798998         0.025154000
Cl           0.023549000         0.461939991         0.218227997
Cl           0.390888005         0.276046991         0.250317007
Cl           0.266214997         0.950527012         0.513688982
Cl           0.703145027         0.379516989         0.502725005
Cl           0.043315999         0.944912016         0.274811000

K_POINTS automatic
3 3 3 0 0 0
