&control
calculation='scf',
prefix='cu10sb3',
pseudo_dir='./',
outdir='./'
disk_io = 'none'
/
&system
ibrav=0,
nat=26,
ntyp=2,
ecutwfc=20,
ecutrho=100,
occupations = 'smearing' 
degauss = 0.02
/
&electrons
conv_thr=1.0d-8
/
&ions
/
&cell
/

ATOMIC_SPECIES
Cu 1.0 Cu.pz-dn-rrkjus_psl.0.2.UPF
Sb 1.0 Sb.pz-dn-rrkjus_psl.0.3.1.UPF

CELL_PARAMETERS {angstrom}
       10.0765323639         0.0000000000         0.0000000000
       -5.0382661819         8.7265330092         0.0000000000
        0.0000000000         0.0000000000         4.3021965027

ATOMIC_POSITIONS {crystal}
Cu	     0.333332986         0.666666985         0.250000000
Cu	     0.666666985         0.333332986         0.750000000
Cu	     0.833288014         0.884064972         0.750000000
Cu	     0.050776999         0.166712001         0.750000000
Cu	     0.115934998         0.949222982         0.750000000
Cu	     0.166712001         0.115934998         0.250000000
Cu	     0.949222982         0.833288014         0.250000000
Cu	     0.884064972         0.050776999         0.250000000
Cu	     0.582391024         0.558858991         0.750000000
Cu	     0.976468027         0.417609006         0.750000000
Cu	     0.441141009         0.023531999         0.750000000
Cu	     0.417609006         0.441141009         0.250000000
Cu	     0.023531999         0.582391024         0.250000000
Cu	     0.558858991         0.976468027         0.250000000
Cu	     0.496208012         0.791306019         0.750000000
Cu	     0.295098007         0.503791988         0.750000000
Cu	     0.208693996         0.704901993         0.750000000
Cu	     0.503791988         0.208693996         0.250000000
Cu	     0.704901993         0.496208012         0.250000000
Cu	     0.791306019         0.295098007         0.250000000
Sb	     0.893149972         0.637537003         0.750000000
Sb	     0.744387984         0.106849998         0.750000000
Sb	     0.362462997         0.255611986         0.750000000
Sb	     0.106849998         0.362462997         0.250000000
Sb	     0.255611986         0.893149972         0.250000000
Sb	     0.637537003         0.744387984         0.250000000

K_POINTS automatic
   4   4   4   0   0   0
