&control
calculation='scf',
prefix='cs2agbr3',
pseudo_dir='./',
outdir='./'
disk_io = 'none'
/
&system
ibrav=0,
nat=24,
ntyp=3,
ecutwfc=20,
ecutrho=100,
occupations = 'smearing' 
degauss = 0.005
/
&electrons
conv_thr=1.0d-8
/
&ions
/
&cell
/

ATOMIC_SPECIES
Cs 1.0 Cs.pz-sp-hgh.UPF
Ag 1.0 Ag.pz-dn-rrkjus_psl.0.1.UPF
Br 1.0 Br.pz-n-rrkjus_psl.0.2.UPF

CELL_PARAMETERS {angstrom}
        4.8204383850         0.0000000000         0.0000000000
        0.0000000000        14.0897426605         0.0000000000
        0.0000000000         0.0000000000        14.6568851471

ATOMIC_POSITIONS {crystal}
Cs     0.750000000         0.988574028         0.825945020
Cs     0.250000000         0.172445998         0.519065022
Cs     0.750000000         0.827553988         0.480935007
Cs     0.750000000         0.488573998         0.674054980
Cs     0.250000000         0.511425972         0.325944990
Cs     0.250000000         0.011426000         0.174054995
Cs     0.750000000         0.327553988         0.019065000
Cs     0.250000000         0.672446012         0.980934978
Ag     0.250000000         0.255158007         0.804238021
Ag     0.750000000         0.244841993         0.304237992
Ag     0.250000000         0.755158007         0.695761979
Ag     0.750000000         0.744841993         0.195761994
Br     0.250000000         0.137854993         0.950873971
Br     0.750000000         0.224831998         0.712068021
Br     0.750000000         0.862145007         0.049125999
Br     0.250000000         0.440306008         0.859668016
Br     0.250000000         0.775168002         0.287932009
Br     0.750000000         0.724831998         0.787931979
Br     0.250000000         0.275168002         0.212068006
Br     0.250000000         0.637854993         0.549126029
Br     0.750000000         0.059694000         0.359667987
Br     0.750000000         0.559693992         0.140331998
Br     0.750000000         0.362145007         0.450874001
Br     0.250000000         0.940306008         0.640331984

K_POINTS automatic
   12   12   12    0    0    0
