&control
calculation='vc-relax',
prefix='bi2cu',
pseudo_dir='./',
outdir='./'
disk_io = 'none'
/
&system
ibrav=0,
nat=12,
ntyp=2,
ecutwfc=80,
ecutrho=400,
occupations = 'smearing' 
degauss = 0.02
/
&electrons
conv_thr=1.0d-8
/
&ions
/
&cell
/

ATOMIC_SPECIES
Bi 1.0 Bi.pbe-dn-rrkjus_psl.0.2.2.UPF
Cu 1.0 Cu.pbe-dn-rrkjus_psl.0.2.UPF

CELL_PARAMETERS (angstrom)
   6.770502415  -0.000003889  -0.000003889
  -0.000003889   6.770502415  -0.000003889
  -0.000003889  -0.000003889   6.770502415

ATOMIC_POSITIONS (crystal)
Bi       0.365699305   0.134298825   0.865701440
Bi       0.134298825   0.865701440   0.365699305
Bi       0.865701440   0.365699305   0.134298825
Bi       0.634300421   0.634300421   0.634300421
Bi       0.365699609   0.365699609   0.365699609
Bi       0.134298538   0.634300725   0.865701153
Bi       0.865701153   0.134298538   0.634300725
Bi       0.634300725   0.865701153   0.134298538
Cu      -0.000000000   0.500000000   0.500000000
Cu       0.500000000   0.500000000   0.000000000
Cu       0.500000000  -0.000000000   0.500000000
Cu       0.000000000   0.000000000   0.000000000

K_POINTS automatic
23 23 23 0 0 0
