&control
calculation='vc-relax',
prefix='cs2bicucl6',
pseudo_dir='./',
outdir='./'
disk_io = 'none'
/
&system
ibrav=0,
nat=40,
ntyp=4,
ecutwfc=80,
ecutrho=400,
occupations = 'smearing' 
degauss = 0.005
/
&electrons
conv_thr=1.0d-8
/
&ions
/
&cell
/

ATOMIC_SPECIES
Cs 1.0 Cs.pbe-sp-hgh.UPF
Bi 1.0 Bi.pbe-dn-rrkjus_psl.0.2.2.UPF
Cu 1.0 Cu.pbe-dn-rrkjus_psl.0.2.UPF
Cl 1.0 Cl.pbe-n-rrkjus_psl.0.1.UPF

CELL_PARAMETERS (angstrom)
  10.616458737   0.001123647   0.000822751
   0.001250028  10.620512832   0.002687114
   0.000991732   0.002613620  10.617090363

ATOMIC_POSITIONS (crystal)
Cs       0.256526042   0.254168894   0.256467519
Cs       0.755454212   0.756328942   0.757526579
Cs       0.756069987   0.754984465   0.257381553
Cs       0.256225801   0.254858321   0.756709568
Cs       0.755357458   0.256234014   0.756089070
Cs       0.255599814   0.753417400   0.257534635
Cs       0.255559427   0.755141456   0.757779240
Cs       0.755589251   0.255347483   0.256463691
Bi       0.005391628   0.005126006   0.007611395
Bi       0.006225782   0.505310742   0.507496868
Bi       0.505638985   0.004944142   0.506670956
Bi       0.505930790   0.504790639   0.006419907
Cu       0.506323796   0.505169849   0.506277321
Cu       0.505250173   0.004540578   0.006744335
Cu       0.005970704   0.504792884   0.007375529
Cu       0.005716658   0.005450777   0.507592425
Cl       0.266835432   0.007875889   0.002635497
Cl       0.743931008   0.002021374   0.012380655
Cl       0.001862400   0.266406825   0.007239839
Cl       0.009151664   0.743671693   0.007365250
Cl       0.009828465   0.004418693   0.268948185
Cl       0.001230165   0.006420722   0.746043852
Cl       0.267579050   0.503587931   0.506162520
Cl       0.744614023   0.506255754   0.507991075
Cl       0.007047770   0.766796311   0.508264419
Cl       0.005192365   0.244026796   0.506535161
Cl       0.006729022   0.505185480   0.768838396
Cl       0.005138367   0.504683447   0.245891327
Cl       0.767175242   0.004941991   0.502537073
Cl       0.244328780   0.005053857   0.511456922
Cl       0.506743187   0.266387697   0.505899964
Cl       0.504466483   0.743642786   0.507204432
Cl       0.509533646   0.005485332   0.768339799
Cl       0.501111375   0.003830747   0.245378944
Cl       0.767295310   0.508904056   0.005847847
Cl       0.244450047   0.501358807   0.007136561
Cl       0.502104376   0.766114962   0.006425887
Cl       0.508947880   0.243316373   0.007162129
Cl       0.506668767   0.505144482   0.267996334
Cl       0.505204704   0.504771388   0.745087353

K_POINTS automatic
4 4 4 0 0 0
