&control
calculation='vc-relax',
prefix='ag',
pseudo_dir='./',
outdir='./'
disk_io = 'none'
/
&system
ibrav=0,
nat=1,
ntyp=1,
ecutwfc=80,
ecutrho=400,
occupations = 'smearing' 
degauss = 0.02
/
&electrons
conv_thr=1.0d-8
/
&ions
/
&cell
/

ATOMIC_SPECIES
Ag 1.0 Ag.pbe-dn-rrkjus_psl.0.1.UPF

CELL_PARAMETERS {angstrom}
        2.9419522285         0.0000000000         0.0000000000
        1.4709761143         2.5478053666         0.0000000000
        1.4709761143         0.8492684555         2.4020939359

ATOMIC_POSITIONS {crystal}
Ag 0 0 0

K_POINTS automatic
22 33 33 0 0 0
