&control
calculation='vc-relax',
prefix='ag3bi14br21',
pseudo_dir='./',
outdir='./'
disk_io = 'none'
/
&system
ibrav=0,
nat=76,
ntyp=3,
ecutwfc=80,
ecutrho=400,
occupations = 'smearing' 
degauss = 0.005
/
&electrons
conv_thr=1.0d-8
diagonalization = 'cg' 
/
&ions
/
&cell
/

ATOMIC_SPECIES
Bi 1.0 Bi.pbe-dn-rrkjus_psl.0.2.2.UPF
Ag 1.0 Ag.pbe-dn-rrkjus_psl.0.1.UPF
Br 1.0 Br.pbe-n-rrkjus_psl.0.2.UPF

CELL_PARAMETERS (angstrom)
  12.976137545   0.000000000   0.004085512
   0.000000000  15.745228788   0.000000000
  -4.339998188   0.000000000  13.812401355

ATOMIC_POSITIONS (crystal)
Ag       0.536513951   0.846850537   0.385443683
Ag       0.536513951   0.153149492   0.385443683
Ag       0.452741764   0.400585437   0.558334437
Ag       0.452741764   0.599414592   0.558334437
Ag       0.164075810   0.335879056   0.642523379
Ag       0.164075810   0.664120974   0.642523379
Bi       0.889912281   0.000000000   0.058479324
Bi       0.878586269   0.817922344   0.381776307
Bi       0.878586269   0.182077671   0.381776307
Bi       0.742510061   0.839851124   0.035676826
Bi       0.742510061   0.160148891   0.035676826
Bi       0.625802589   0.000000000   0.112243642
Bi       0.783854966   0.326165833   0.596646194
Bi       0.783854966   0.673834197   0.596646194
Bi       0.814712660   0.895330588   0.856410422
Bi       0.814712660   0.104669390   0.856410422
Bi       0.793722215   0.500000000   1.078098470
Bi       0.616169388   0.000000000   0.725081542
Bi       0.472835212   0.402314381   0.125344519
Bi       0.472835212   0.597685619   0.125344519
Bi       0.534978508   0.097500873   0.879618837
Bi       0.534978508   0.902499105   0.879618837
Bi       0.386490019   0.500000000   0.284197193
Bi       0.241997522   0.000000000  -0.014110504
Bi       0.185974173   0.396785124   0.166903690
Bi       0.185974173   0.603214846   0.166903690
Bi       0.225392380   0.170173567   0.405087019
Bi       0.225392380   0.829826463   0.405087019
Bi       0.345718689   0.500000000   0.908142081
Bi       0.244574404   0.344648734   0.980838649
Bi       0.244574404   0.655351296   0.980838649
Bi       0.168075326   0.879804254   0.804712031
Bi       0.168075326   0.120195761   0.804712031
Bi       0.080979991   0.500000000   0.968351743
Br       1.003249151   0.784361157   0.252456010
Br       1.003249151   0.215638843   0.252456010
Br      -0.026147257   0.500000000   0.241750420
Br       0.897731506   0.351649165   0.441745343
Br       0.897731506   0.648350805   0.441745343
Br       0.848079986   0.000000000   0.296835314
Br       0.688976437   0.500000000   0.236961678
Br       0.798701062   0.500000000   0.668495061
Br       0.760996143   0.851255862   0.526931640
Br       0.760996143   0.148744123   0.526931640
Br       0.902683936   0.374596776   0.996308114
Br       0.902683936   0.625403194   0.996308114
Br       0.676441862   0.783570046   0.246783126
Br       0.676441862   0.216429939   0.246783126
Br       0.693963028   0.274714781   0.738293885
Br       0.693963028   0.725285219   0.738293885
Br       0.549783712   0.000000000   0.302997318
Br       0.568868693   0.345469005   0.449926831
Br       0.568868693   0.654531025   0.449926831
Br       0.429666719   0.879780676   0.057376567
Br       0.429666719   0.120219309   0.057376567
Br       0.614262724   0.368192433   0.993116356
Br       0.614262724   0.631807537   0.993116356
Br       0.427512554   0.867284711   0.530096421
Br       0.427512554   0.132715289   0.530096421
Br       0.478255443   0.500000000   0.704945126
Br       0.324336465   0.779525504   0.263822318
Br       0.324336465   0.220474467   0.263822318
Br       0.323624099   0.750814729   0.796174229
Br       0.323624099   0.249185271   0.796174229
Br       0.068303372   0.839275794  -0.038435159
Br       0.068303372   0.160724176  -0.038435159
Br       0.239461029   0.342486997   0.485961953
Br       0.239461029   0.657513003   0.485961953
Br       0.188905913   0.000000000   0.316079695
Br       0.282802410   0.000000000   0.713709056
Br       0.178156790   0.500000000   0.717717918
Br       0.085824617   0.861530324   0.530292141
Br       0.085824617   0.138469676   0.530292141
Br      -0.016794261   0.000000000   0.734475833
Br       0.998380583   0.297163112   0.720458277
Br       0.998380583   0.702836888   0.720458277

K_POINTS automatic
2 2 2 0 0 0                                                                    
