&control
calculation='vc-relax',
prefix='bicubr6',
pseudo_dir='./',
outdir='./'
disk_io = 'none'
/
&system
ibrav=0,
nat=32,
ntyp=3,
ecutwfc=80,
ecutrho=400,
occupations = 'smearing' 
degauss = 0.005
/
&electrons
conv_thr=1.0d-8
/
&ions
/
&cell
/

ATOMIC_SPECIES
Bi 1.0 Bi.pbe-dn-rrkjus_psl.0.2.2.UPF
Cu 1.0 Cu.pbe-dn-rrkjus_psl.0.2.UPF
Br 1.0 Br.pbe-n-rrkjus_psl.0.2.UPF

CELL_PARAMETERS (angstrom)
   6.453281671  -0.038151311   0.018140837
  -3.214771471   9.172945397  -0.057693655
  -1.257776180  -4.282669519  12.884584260

ATOMIC_POSITIONS (crystal)
Bi       0.582406135   0.911841971   0.617024517
Bi       0.014707909   0.691006846   0.127629244
Bi       0.417593865   0.088158007   0.382975453
Bi       0.985292106   0.308993154   0.872370770
Cu       0.294323547   0.626875760   0.762458000
Cu       0.500000000   0.500000000   0.500000000
Cu       0.705676423   0.373124269   0.237542015
Cu       0.000000000   0.000000000   0.000000000
Br       0.754063392   0.091109667   0.964182362
Br       0.754992228   0.172986072   0.254344423
Br       0.245007772   0.827013913   0.745655577
Br       0.735389816   0.804088775   0.013081114
Br       0.587081954   0.184308024   0.735906203
Br       0.335034023   0.418460281   0.767130875
Br       0.664965977   0.581539719   0.232869125
Br       0.272783512   0.614168678   0.485195021
Br       0.264610170   0.195911240   0.986918884
Br       0.779841714   0.703354708   0.507589411
Br       0.245936593   0.908890326   0.035817627
Br       0.775789608   0.054106261   0.488353336
Br       0.624560446   0.707983059   0.732471830
Br       1.004961758   0.046695821   0.731276961
Br       0.220158316   0.296645292   0.492410589
Br       0.412918046   0.815691946   0.264093797
Br       0.969158120   0.550152149   0.799429914
Br       0.708747631   0.430943509   0.973861480
Br       0.291252369   0.569056491   0.026138525
Br       0.030841860   0.449847851   0.200570100
Br       0.375439583   0.292016941   0.267528199
Br       0.224210363   0.945893750   0.511646635
Br       0.727216518   0.385831292   0.514804979
Br      -0.004961766   0.953304194   0.268723010

K_POINTS automatic
3 3 3 0 0 0
