&control
calculation='scf',
prefix='agbii4',
pseudo_dir='./',
outdir='./'
disk_io = 'none'
/
&system
ibrav=0,
nat=12,
ntyp=3,
ecutwfc=20,
ecutrho=100,
occupations = 'smearing' 
degauss = 0.005
/
&electrons
conv_thr=1.0d-8
/
&ions
/
&cell
/

ATOMIC_SPECIES
Ag 1.0 Ag.pz-dn-rrkjus_psl.0.1.UPF
Bi 1.0 Bi.pz-dn-rrkjus_psl.0.2.2.UPF
I 1.0 I.pz-n-rrkjus_psl.0.2.UPF

CELL_PARAMETERS {angstrom}
        8.9854574203         0.0000000000         0.0000000000
        0.2358696956         8.9823610782         0.0000000000
       -4.5497331777        -4.5537317628         6.2691227534

ATOMIC_POSITIONS {crystal}
Ag	     0.000000000         0.000000000         0.500000000
Ag	     0.000000000         0.500000000         0.000000000
Bi	     0.000000000         0.000000000         0.000000000
Bi	     0.500000000         0.000000000         0.500000000
I	     0.242555007         0.759176016         0.483377993
I	     0.775798023         0.759176016         0.016621999
I	     0.254759997         0.754487991         0.999728024
I	     0.254759997         0.255032003         0.500271976
I	     0.745239973         0.744967997         0.499727994
I	     0.224202007         0.240823999         0.983377993
I	     0.745239973         0.245511994         0.000272000
I	     0.757444978         0.240823999         0.516622007

K_POINTS automatic
   4   4   4   0   0   0
