&control
calculation='vc-relax',
prefix='cs3bi2cl9',
pseudo_dir='./',
outdir='./'
disk_io = 'none'
/
&system
ibrav=0,
nat=14,
ntyp=3,
ecutwfc=80,
ecutrho=400,
occupations = 'smearing' 
degauss = 0.005
/
&electrons
conv_thr=1.0d-8
/
&ions
/
&cell
/

ATOMIC_SPECIES
Cs 1.0 Cs.pbe-sp-hgh.UPF
Bi 1.0 Bi.pbe-dn-rrkjus_psl.0.2.2.UPF
Cl 1.0 Cl.pbe-n-rrkjus_psl.0.1.UPF

CELL_PARAMETERS {angstrom}
        8.2159881592         0.0000000000         0.0000000000
       -4.1079940796         7.1152544630         0.0000000000
        0.0000000000         0.0000000000        10.0698013306

ATOMIC_POSITIONS {crystal}
Cs     0.333332986         0.666666985         0.334212005
Cs     0.666666985         0.333332986         0.665787995
Cs     0.000000000         0.000000000         0.000000000
Bi     0.333332986         0.666666985         0.813494027
Bi     0.666666985         0.333332986         0.186506003
Cl     0.170672998         0.341345012         0.664368987
Cl     0.658654988         0.829326987         0.664368987
Cl     0.170672998         0.829326987         0.664368987
Cl     0.829326987         0.658654988         0.335631013
Cl     0.829326987         0.170672998         0.335631013
Cl     0.500000000         0.500000000         0.000000000
Cl     0.500000000         0.000000000         0.000000000
Cl     0.000000000         0.500000000         0.000000000
Cl     0.341345012         0.170672998         0.335631013

K_POINTS automatic
4 4 4 0 0 0
