&control
calculation='scf',
prefix='sb2au',
pseudo_dir='./',
outdir='./'
disk_io = 'none'
/
&system
ibrav=0,
nat=12,
ntyp=2,
ecutwfc=20,
ecutrho=100,
occupations = 'smearing' 
degauss = 0.02
/
&electrons
conv_thr=1.0d-8
/
&ions
/
&cell
/

ATOMIC_SPECIES
Sb 1.0 Sb.pz-dn-rrkjus_psl.0.3.1.UPF
Au 1.0 Au.pz-dn-rrkjus_psl.0.1.UPF

CELL_PARAMETERS {angstrom}
        6.7909746170         0.0000000000         0.0000000000
        0.0000000000         6.7909746170         0.0000000000
        0.0000000000         0.0000000000         6.7909746170

ATOMIC_POSITIONS {crystal}
Sb	     0.376152009         0.123847999         0.876151979
Sb	     0.123847999         0.876151979         0.376152009
Sb	     0.876151979         0.376152009         0.123847999
Sb	     0.623848021         0.623848021         0.623848021
Sb	     0.376152009         0.376152009         0.376152009
Sb	     0.123847999         0.623848021         0.876151979
Sb	     0.876151979         0.123847999         0.623848021
Sb	     0.623848021         0.876151979         0.123847999
Au	     0.000000000         0.500000000         0.500000000
Au	     0.500000000         0.500000000         0.000000000
Au	     0.500000000         0.000000000         0.500000000
Au	     0.000000000         0.000000000         0.000000000

K_POINTS automatic
   13   13   13    0    0    0
