&control
calculation='vc-relax',
prefix='bi2au',
pseudo_dir='./',
outdir='./'
disk_io = 'none'
/
&system
ibrav=0,
nat=12,
ntyp=2,
ecutwfc=80,
ecutrho=400,
occupations = 'smearing' 
degauss = 0.02
/
&electrons
conv_thr=1.0d-8
/
&ions
/
&cell
/

ATOMIC_SPECIES
Bi 1.0 Bi.pbe-dn-rrkjus_psl.0.2.2.UPF
Au 1.0 Au.pbe-dn-rrkjus_psl.0.1.UPF

CELL_PARAMETERS (angstrom)
   6.634958702  -0.000000586  -0.000000586
  -0.000000586   6.634958702  -0.000000586
  -0.000000586  -0.000000586   6.634958702

ATOMIC_POSITIONS (crystal)
Bi       0.375419604   0.124581669   0.875418267
Bi       0.124581669   0.875418267   0.375419604
Bi       0.875418267   0.375419604   0.124581669
Bi       0.624581148   0.624581148   0.624581148
Bi       0.375418882   0.375418882   0.375418882
Bi       0.124581711   0.624580426   0.875418309
Bi       0.875418309   0.124581711   0.624580426
Bi       0.624580426   0.875418309   0.124581711
Au      -0.000000000   0.500000000   0.500000000
Au       0.500000000   0.500000000  -0.000000000
Au       0.500000000  -0.000000000   0.500000000
Au       0.000000000   0.000000000  -0.000000000

K_POINTS automatic
23 23 23 0 0 0
