&control
calculation='scf',
prefix='bi',
pseudo_dir='./',
outdir='./'
disk_io = 'none'
/
&system
ibrav=0,
nat=6,
ntyp=1,
ecutwfc=20,
ecutrho=100,
occupations = 'smearing' 
degauss = 0.02
/
&electrons
conv_thr=1.0d-8
/
&ions
/
&cell
/

ATOMIC_SPECIES
Bi 1.0 Bi.pz-dn-rrkjus_psl.0.2.2.UPF

CELL_PARAMETERS {angstrom}
        4.5984492302         0.0000000000         0.0000000000
        0.0000000000         4.5984492302         0.0000000000
        0.0000000000         0.0000000000         4.5984492302

ATOMIC_POSITIONS {crystal}
Bi     0.666666985         0.333332986         0.098948002
Bi     0.333332986         0.666666985         0.901051998
Bi     0.333332986         0.666666985         0.432282001
Bi     0.000000000         0.000000000         0.234384999
Bi     0.000000000         0.000000000         0.765614986
Bi     0.666666985         0.333332986         0.567718029

K_POINTS automatic
   14   14   14    0    0    0
