&control
calculation='vc-relax',
prefix='cs2aucl3',
pseudo_dir='./',
outdir='./'
disk_io = 'none'
/
&system
ibrav=0,
nat=24,
ntyp=3,
ecutwfc=80,
ecutrho=400,
occupations = 'smearing' 
degauss = 0.005
/
&electrons
conv_thr=1.0d-8
/
&ions
/
&cell
/

ATOMIC_SPECIES
Cs 1.0 Cs.pbe-sp-hgh.UPF
Au 1.0 Au.pbe-dn-rrkjus_psl.0.1.UPF
Cl 1.0 Cl.pbe-n-rrkjus_psl.0.1.UPF

CELL_PARAMETERS (angstrom)
   5.631064751   0.000000000   0.000000000
   0.000000000  13.852208523   0.000000000
   0.000000000   0.000000000  12.176132595

ATOMIC_POSITIONS (crystal)
Cs       0.750000000   0.188107341   0.442083548
Cs       0.250000000   0.811892659   0.557916452
Cs       0.750000000   0.688107341   0.057916448
Cs       0.250000000   0.311892659   0.942083548
Cs       0.750000000   0.507208108   0.673298005
Cs       0.250000000   0.492791892   0.326701995
Cs       0.750000000   0.007208105   0.826701995
Cs       0.250000000   0.992791892   0.173297990
Au       0.750000000   0.277861281   0.129552560
Au       0.250000000   0.722138690   0.870447440
Au       0.750000000   0.777861310   0.370447440
Au       0.250000000   0.222138704   0.629552560
Cl       0.750000000   0.119364294   0.066852088
Cl       0.250000000   0.880635706   0.933147893
Cl       0.750000000   0.619364294   0.433147923
Cl       0.250000000   0.380635706   0.566852107
Cl       0.750000000   0.443022746   0.140060208
Cl       0.250000000   0.556977224   0.859939777
Cl       0.750000000   0.943022776   0.359939807
Cl       0.250000000   0.056977247   0.640060223
Cl       0.750000000   0.256280586   0.806751861
Cl       0.250000000   0.743719414   0.193248139
Cl       0.750000000   0.756280586   0.693248139
Cl       0.250000000   0.243719414   0.306751861

K_POINTS automatic
3 3 3 0 0 0
