&control
calculation='scf',
prefix='aui',
pseudo_dir='./',
outdir='./'
disk_io = 'none'
/
&system
ibrav=0,
nat=8,
ntyp=2,
ecutwfc=20,
ecutrho=100,
occupations = 'smearing' 
degauss = 0.005
/
&electrons
conv_thr=1.0d-8
/
&ions
/
&cell
/

ATOMIC_SPECIES
Au 1.0 Au.pz-dn-rrkjus_psl.0.1.UPF
I 1.0 I.pz-n-rrkjus_psl.0.2.UPF

CELL_PARAMETERS {angstrom}
        4.6053023338         0.0000000000         0.0000000000
        0.0000000000         4.6053023338         0.0000000000
        0.0000000000         0.0000000000        15.0092144012

ATOMIC_POSITIONS {crystal}
Au	     0.250000000         0.750000000         0.250000000
Au	     0.750000000         0.750000000         0.750000000
Au	     0.250000000         0.250000000         0.750000000
Au	     0.750000000         0.250000000         0.250000000
I	     0.500000000         0.000000000         0.112668999
I	     0.500000000         0.000000000         0.612668991
I	     0.000000000         0.500000000         0.887331009
I	     0.000000000         0.500000000         0.387331009

K_POINTS automatic
   7   7   7   0   0   0
