&control
calculation='vc-relax',
prefix='cscu',
pseudo_dir='./',
outdir='./'
disk_io = 'none'
/
&system
ibrav=0,
nat=2,
ntyp=2,
ecutwfc=80,
ecutrho=400,
occupations = 'smearing' 
degauss = 0.005
/
&electrons
conv_thr=1.0d-8
/
&ions
/
&cell
/

ATOMIC_SPECIES
Cs 1.0 Cs.pbe-sp-hgh.UPF
Cu 1.0 Cu.pbe-dn-rrkjus_psl.0.2.UPF

CELL_PARAMETERS {angstrom}
        4.3810606003         0.0000000000         0.0000000000
        0.0000000000         4.3810606003         0.0000000000
        0.0000000000         0.0000000000         4.3810606003

ATOMIC_POSITIONS {crystal}
Cs           0.000000000         0.000000000         0.000000000
Cu           0.500000000         0.500000000         0.500000000

K_POINTS automatic
8 8 8 0 0 0
