&control
calculation='scf',
prefix='bii4',
pseudo_dir='./',
outdir='./'
disk_io = 'none'
/
&system
ibrav=0,
nat=10,
ntyp=2,
ecutwfc=20,
ecutrho=100,
occupations = 'smearing' 
degauss = 0.005
/
&electrons
conv_thr=1.0d-8
/
&ions
/
&cell
/

ATOMIC_SPECIES
Bi 1.0 Bi.pz-dn-rrkjus_psl.0.2.2.UPF
I 1.0 I.pz-n-rrkjus_psl.0.2.UPF

CELL_PARAMETERS {angstrom}
        9.2214584351         0.0000000000         0.0000000000
        0.6217389577         9.2004747887         0.0000000000
       -4.7323054709        -4.8027534833         6.2907980081

ATOMIC_POSITIONS {crystal}
Bi	     0.000000000         0.500000000         0.000000000
Bi	     0.000000000         0.000000000         0.500000000
I	     0.227293000         0.290888011         0.563594997
I	     0.227293000         0.663697004         0.936405003
I	     0.212134004         0.219786003         0.992348015
I	     0.727437019         0.219786003         0.507651985
I	     0.272563010         0.780214012         0.492347986
I	     0.772706985         0.336302996         0.063594997
I	     0.787865996         0.780214012         0.007652000
I	     0.772706985         0.709111989         0.436405003

K_POINTS automatic
   14   14   14    0    0    0
