&control
calculation='scf',
prefix='bicl3',
pseudo_dir='./',
outdir='./'
disk_io = 'none'
/
&system
ibrav=0,
nat=16,
ntyp=2,
ecutwfc=20,
ecutrho=100,
occupations = 'smearing' 
degauss = 0.005
/
&electrons
conv_thr=1.0d-8
/
&ions
/
&cell
/

ATOMIC_SPECIES
Bi 1.0 Bi.pz-dn-rrkjus_psl.0.2.2.UPF
Cl 1.0 Cl.pz-n-rrkjus_psl.0.1.UPF

CELL_PARAMETERS {angstrom}
        6.7881655693         0.0000000000         0.0000000000
        0.0000000000         8.3731927872         0.0000000000
        0.0000000000         0.0000000000         8.8150920868

ATOMIC_POSITIONS {crystal}
Bi     0.488260001         0.544813991         0.750000000
Bi     0.511740029         0.455186009         0.250000000
Bi     0.011740000         0.044814002         0.750000000
Bi     0.988259971         0.955186009         0.250000000
Cl     0.633253992         0.336991996         0.939521015
Cl     0.366746008         0.663007975         0.439521015
Cl     0.866746008         0.836992025         0.939521015
Cl     0.133254007         0.163008004         0.439521015
Cl     0.649636984         0.070560999         0.250000000
Cl     0.350362986         0.929439008         0.750000000
Cl     0.850363016         0.570560992         0.250000000
Cl     0.149636999         0.429439008         0.750000000
Cl     0.133254007         0.163008004         0.060479000
Cl     0.866746008         0.836992025         0.560478985
Cl     0.366746008         0.663007975         0.060479000
Cl     0.633253992         0.336991996         0.560478985

K_POINTS automatic
   8   8   8   0   0   0
