&control
calculation='vc-relax',
prefix='cscl4',
pseudo_dir='./',
outdir='./'
disk_io = 'none'
/
&system
ibrav=0,
nat=20,
ntyp=2,
ecutwfc=80,
ecutrho=400,
occupations = 'smearing' 
degauss = 0.005
/
&electrons
conv_thr=1.0d-8
/
&ions
/
&cell
/

ATOMIC_SPECIES
Cs 1.0 Cs.pz-sp-hgh.UPF
Cl 1.0 Cl.pz-n-rrkjus_psl.0.1.UPF

CELL_PARAMETERS (angstrom)
   9.005712294   0.000000000   0.220328936
   0.000000000   7.522572499   0.000000000
  -3.620484863   0.000000000   9.725864570

ATOMIC_POSITIONS (crystal)
Cs       0.229119590   0.874879483   0.303941049
Cs       0.770880380   0.374879453   0.196058966
Cs       0.229119590   0.625120517   0.803941049
Cs       0.770880380   0.125120540   0.696058951
Cl       0.822268691   0.935688740   0.056671195
Cl       0.046975200   0.369185847   0.985986260
Cl       0.364272349   0.209804327   0.891673767
Cl       0.177731339   0.435688740   0.443328808
Cl       0.451252028   0.876133939   0.660964037
Cl       0.548747972   0.123866069   0.339035963
Cl       0.177731339   0.064311264   0.943328808
Cl       0.364272349   0.290195688   0.391673797
Cl       0.548747972   0.376133939   0.839035963
Cl       0.953024789   0.869185847   0.514013740
Cl       0.822268691   0.564311260   0.556671192
Cl       0.953024789   0.630814153   0.014013762
Cl       0.046975200   0.130814153   0.485986230
Cl       0.635727621   0.709804312   0.608326233
Cl       0.635727621   0.790195688   0.108326211
Cl       0.451252028   0.623866061   0.160964037

K_POINTS automatic
2 2 2 0 0 0
