&control
calculation='vc-relax',
prefix='cscl4',
pseudo_dir='./',
outdir='./'
disk_io = 'none'
/
&system
ibrav=0,
nat=20,
ntyp=2,
ecutwfc=80,
ecutrho=400,
occupations = 'smearing' 
degauss = 0.005
/
&electrons
conv_thr=1.0d-8
/
&ions
/
&cell
/

ATOMIC_SPECIES
Cs 1.0 Cs.pbe-sp-hgh.UPF
Cl 1.0 Cl.pbe-n-rrkjus_psl.0.1.UPF

CELL_PARAMETERS {angstrom}
       10.6528015137         0.0000000000         0.0000000000
        0.0000000000         9.0649452209         0.0000000000
       -4.5461452774         0.0000000000        10.8051871801

ATOMIC_POSITIONS {crystal}
Cs           0.226099998         0.875765026         0.304601014
Cs           0.773899972         0.375764996         0.195399001
Cs           0.226099998         0.624234974         0.804601014
Cs           0.773899972         0.124234997         0.695398986
Cl            0.829792023         0.972229004         0.049146000
Cl            0.047657002         0.356341004         0.989175022
Cl            0.376877993         0.206217006         0.890492976
Cl            0.170208007         0.472229004         0.450854003
Cl            0.441379011         0.896196008         0.671860993
Cl            0.558620989         0.103804000         0.328139007
Cl            0.170208007         0.027771000         0.950854003
Cl            0.376877993         0.293783009         0.390493006
Cl            0.558620989         0.396196008         0.828139007
Cl            0.952342987         0.856341004         0.510824978
Cl            0.829792023         0.527770996         0.549145997
Cl            0.952342987         0.643658996         0.010825000
Cl            0.047657002         0.143658996         0.489174992
Cl            0.623121977         0.706216991         0.609507024
Cl            0.623121977         0.793783009         0.109507002
Cl            0.441379011         0.603803992         0.171860993

K_POINTS automatic
2 2 2 0 0 0
