&control
calculation='vc-relax',
prefix='sbcu2',
pseudo_dir='./',
outdir='./'
disk_io = 'none'
/
&system
ibrav=0,
nat=6,
ntyp=2,
ecutwfc=80,
ecutrho=400,
occupations = 'smearing' 
degauss = 0.005
/
&electrons
conv_thr=1.0d-8
/
&ions
/
&cell
/

ATOMIC_SPECIES
Sb 1.0 Sb.pbe-dn-rrkjus_psl.0.3.1.UPF
Cu 1.0 Cu.pbe-dn-rrkjus_psl.0.2.UPF

CELL_PARAMETERS {angstrom}
        5.7261066437         0.0000000000         0.0000000000
        2.8630533218         4.9589538182         0.0000000000
        2.8630533218         1.6529846061         4.6753464966

ATOMIC_POSITIONS {crystal}
Sb           0.000000000         0.000000000         0.000000000
Sb           0.250000000         0.250000000         0.250000000
Cu           0.125000000         0.625000000         0.625000000
Cu           0.625000000         0.625000000         0.625000000
Cu           0.625000000         0.125000000         0.625000000
Cu           0.625000000         0.625000000         0.125000000

K_POINTS automatic
15 15 15 0 0 0
