&control
calculation='scf',
prefix='cs3sb2cl9',
pseudo_dir='./',
outdir='./'
disk_io = 'none'
/
&system
ibrav=0,
nat=14,
ntyp=3,
ecutwfc=20,
ecutrho=100,
occupations = 'smearing' 
degauss = 0.005
/
&electrons
conv_thr=1.0d-8
/
&ions
/
&cell
/

ATOMIC_SPECIES
Cs 1.0 Cs.pz-sp-hgh.UPF
Sb 1.0 Sb.pz-dn-rrkjus_psl.0.3.1.UPF
Cl 1.0 Cl.pz-n-rrkjus_psl.0.1.UPF

CELL_PARAMETERS {angstrom}
        7.7965283394         0.0000000000         0.0000000000
       -3.8982641697         6.7519916032         0.0000000000
        0.0000000000         0.0000000000         9.5367479324

ATOMIC_POSITIONS {crystal}
Cs	     0.666666985         0.333332986         0.665531993
Cs	     0.333332986         0.666666985         0.334468007
Cs	     0.000000000         0.000000000         0.000000000
Sb	     0.666666985         0.333332986         0.180700004
Sb	     0.333332986         0.666666985         0.819299996
Cl	     0.822257996         0.177742004         0.328465015
Cl	     0.822257996         0.644515991         0.328465015
Cl	     0.355484009         0.177742004         0.328465015
Cl	     0.644515991         0.822257996         0.671535015
Cl	     0.177742004         0.355484009         0.671535015
Cl	     0.500000000         0.000000000         0.000000000
Cl	     0.000000000         0.500000000         0.000000000
Cl	     0.500000000         0.500000000         0.000000000
Cl	     0.177742004         0.822257996         0.671535015

K_POINTS automatic
   8   8   8   0   0   0
