&control
calculation='scf',
prefix='agi',
pseudo_dir='./',
outdir='./'
disk_io = 'none'
/
&system
ibrav=0,
nat=2,
ntyp=2,
ecutwfc=20,
ecutrho=100,
occupations = 'smearing' 
degauss = 0.005
/
&electrons
conv_thr=1.0d-8
/
&ions
/
&cell
/

ATOMIC_SPECIES
Ag 1.0 Ag.pz-dn-rrkjus_psl.0.1.UPF
I 1.0 I.pz-n-rrkjus_psl.0.2.UPF

CELL_PARAMETERS {angstrom}
        4.6958484650         0.0000000000         0.0000000000
        2.3479242325         4.0667240630         0.0000000000
        2.3479242325         1.3555746877         3.8341442162

ATOMIC_POSITIONS {crystal}
Ag	     0.000000000         0.000000000         0.000000000
I	     0.750000000         0.750000000         0.750000000

K_POINTS automatic
    8   16   16    0    0    0
