&control
calculation='vc-relax',
prefix='sbbr',
pseudo_dir='./',
outdir='./'
disk_io = 'none'
/
&system
ibrav=0,
nat=16,
ntyp=2,
ecutwfc=80,
ecutrho=400,
occupations = 'smearing' 
degauss = 0.005
/
&electrons
conv_thr=1.0d-8
/
&ions
/
&cell
/

ATOMIC_SPECIES
Sb 1.0 Sb.pbe-dn-rrkjus_psl.0.3.1.UPF
Br 1.0 Br.pbe-n-rrkjus_psl.0.2.UPF

CELL_PARAMETERS (angstrom)
   7.636183891  -0.069753038   0.025373114
  -6.476440907   4.046270640  -0.025370623
  -6.676441404   1.947232081  20.231982458

ATOMIC_POSITIONS (crystal)
Sb       0.819443697   0.180559426   0.002531726
Sb       0.180556303   0.819440574   0.997468267
Sb       0.817495904   0.182507972   0.498208012
Sb       0.788752478   0.211250776   0.860332867
Sb       0.211247552   0.788749254   0.139667118
Sb       0.182504081   0.817492013   0.501791958
Sb       0.917041209   0.082961863   0.640941354
Sb       0.082958777   0.917038123   0.359058676
Br       0.854388858   0.145609798   0.177070351
Br       0.529323098   0.470687137   0.607802663
Br       0.568332089   0.431656791   0.103980216
Br       0.431667911   0.568343209   0.896019799
Br       0.470676872   0.529312833   0.392197367
Br       0.306976340   0.693022758   0.677178928
Br       0.693023630   0.306977212   0.322821072
Br       0.145611127   0.854390187   0.822929634

K_POINTS automatic
5 10 5 0 0 0
