 &control
    calculation     = 'nscf'
    prefix          = 'si'
    pseudo_dir      = './'
    outdir          = './'
    verbosity       = 'high'
 /
 &system
    ibrav           = 2
    celldm(1)       = 10.262
    nat             = 2
    ntyp            = 1
    ecutwfc         = 35
    nbnd            = 20
    noncolin        =.true.
    lspinorb        =.true.
 /
 &electrons
    diagonalization = 'david'
    mixing_beta     =  0.7
    conv_thr        =  1.0d-11
 /
ATOMIC_SPECIES
  Si  28.0855  Si_r.upf
ATOMIC_POSITIONS alat
  Si   0.00  0.00  0.00
  Si   0.25  0.25  0.25
K_POINTS crystal
1728
0 0 0 .00057870
0 0 .08333333 .00057870
0 0 .16666666 .00057870
0 0 .25000000 .00057870
0 0 .33333333 .00057870
0 0 .41666666 .00057870
0 0 .50000000 .00057870
0 0 .58333333 .00057870
0 0 .66666666 .00057870
0 0 .75000000 .00057870
0 0 .83333333 .00057870
0 0 .91666666 .00057870
0 .08333333 0 .00057870
0 .08333333 .08333333 .00057870
0 .08333333 .16666666 .00057870
0 .08333333 .25000000 .00057870
0 .08333333 .33333333 .00057870
0 .08333333 .41666666 .00057870
0 .08333333 .50000000 .00057870
0 .08333333 .58333333 .00057870
0 .08333333 .66666666 .00057870
0 .08333333 .75000000 .00057870
0 .08333333 .83333333 .00057870
0 .08333333 .91666666 .00057870
0 .16666666 0 .00057870
0 .16666666 .08333333 .00057870
0 .16666666 .16666666 .00057870
0 .16666666 .25000000 .00057870
0 .16666666 .33333333 .00057870
0 .16666666 .41666666 .00057870
0 .16666666 .50000000 .00057870
0 .16666666 .58333333 .00057870
0 .16666666 .66666666 .00057870
0 .16666666 .75000000 .00057870
0 .16666666 .83333333 .00057870
0 .16666666 .91666666 .00057870
0 .25000000 0 .00057870
0 .25000000 .08333333 .00057870
0 .25000000 .16666666 .00057870
0 .25000000 .25000000 .00057870
0 .25000000 .33333333 .00057870
0 .25000000 .41666666 .00057870
0 .25000000 .50000000 .00057870
0 .25000000 .58333333 .00057870
0 .25000000 .66666666 .00057870
0 .25000000 .75000000 .00057870
0 .25000000 .83333333 .00057870
0 .25000000 .91666666 .00057870
0 .33333333 0 .00057870
0 .33333333 .08333333 .00057870
0 .33333333 .16666666 .00057870
0 .33333333 .25000000 .00057870
0 .33333333 .33333333 .00057870
0 .33333333 .41666666 .00057870
0 .33333333 .50000000 .00057870
0 .33333333 .58333333 .00057870
0 .33333333 .66666666 .00057870
0 .33333333 .75000000 .00057870
0 .33333333 .83333333 .00057870
0 .33333333 .91666666 .00057870
0 .41666666 0 .00057870
0 .41666666 .08333333 .00057870
0 .41666666 .16666666 .00057870
0 .41666666 .25000000 .00057870
0 .41666666 .33333333 .00057870
0 .41666666 .41666666 .00057870
0 .41666666 .50000000 .00057870
0 .41666666 .58333333 .00057870
0 .41666666 .66666666 .00057870
0 .41666666 .75000000 .00057870
0 .41666666 .83333333 .00057870
0 .41666666 .91666666 .00057870
0 .50000000 0 .00057870
0 .50000000 .08333333 .00057870
0 .50000000 .16666666 .00057870
0 .50000000 .25000000 .00057870
0 .50000000 .33333333 .00057870
0 .50000000 .41666666 .00057870
0 .50000000 .50000000 .00057870
0 .50000000 .58333333 .00057870
0 .50000000 .66666666 .00057870
0 .50000000 .75000000 .00057870
0 .50000000 .83333333 .00057870
0 .50000000 .91666666 .00057870
0 .58333333 0 .00057870
0 .58333333 .08333333 .00057870
0 .58333333 .16666666 .00057870
0 .58333333 .25000000 .00057870
0 .58333333 .33333333 .00057870
0 .58333333 .41666666 .00057870
0 .58333333 .50000000 .00057870
0 .58333333 .58333333 .00057870
0 .58333333 .66666666 .00057870
0 .58333333 .75000000 .00057870
0 .58333333 .83333333 .00057870
0 .58333333 .91666666 .00057870
0 .66666666 0 .00057870
0 .66666666 .08333333 .00057870
0 .66666666 .16666666 .00057870
0 .66666666 .25000000 .00057870
0 .66666666 .33333333 .00057870
0 .66666666 .41666666 .00057870
0 .66666666 .50000000 .00057870
0 .66666666 .58333333 .00057870
0 .66666666 .66666666 .00057870
0 .66666666 .75000000 .00057870
0 .66666666 .83333333 .00057870
0 .66666666 .91666666 .00057870
0 .75000000 0 .00057870
0 .75000000 .08333333 .00057870
0 .75000000 .16666666 .00057870
0 .75000000 .25000000 .00057870
0 .75000000 .33333333 .00057870
0 .75000000 .41666666 .00057870
0 .75000000 .50000000 .00057870
0 .75000000 .58333333 .00057870
0 .75000000 .66666666 .00057870
0 .75000000 .75000000 .00057870
0 .75000000 .83333333 .00057870
0 .75000000 .91666666 .00057870
0 .83333333 0 .00057870
0 .83333333 .08333333 .00057870
0 .83333333 .16666666 .00057870
0 .83333333 .25000000 .00057870
0 .83333333 .33333333 .00057870
0 .83333333 .41666666 .00057870
0 .83333333 .50000000 .00057870
0 .83333333 .58333333 .00057870
0 .83333333 .66666666 .00057870
0 .83333333 .75000000 .00057870
0 .83333333 .83333333 .00057870
0 .83333333 .91666666 .00057870
0 .91666666 0 .00057870
0 .91666666 .08333333 .00057870
0 .91666666 .16666666 .00057870
0 .91666666 .25000000 .00057870
0 .91666666 .33333333 .00057870
0 .91666666 .41666666 .00057870
0 .91666666 .50000000 .00057870
0 .91666666 .58333333 .00057870
0 .91666666 .66666666 .00057870
0 .91666666 .75000000 .00057870
0 .91666666 .83333333 .00057870
0 .91666666 .91666666 .00057870
.08333333 0 0 .00057870
.08333333 0 .08333333 .00057870
.08333333 0 .16666666 .00057870
.08333333 0 .25000000 .00057870
.08333333 0 .33333333 .00057870
.08333333 0 .41666666 .00057870
.08333333 0 .50000000 .00057870
.08333333 0 .58333333 .00057870
.08333333 0 .66666666 .00057870
.08333333 0 .75000000 .00057870
.08333333 0 .83333333 .00057870
.08333333 0 .91666666 .00057870
.08333333 .08333333 0 .00057870
.08333333 .08333333 .08333333 .00057870
.08333333 .08333333 .16666666 .00057870
.08333333 .08333333 .25000000 .00057870
.08333333 .08333333 .33333333 .00057870
.08333333 .08333333 .41666666 .00057870
.08333333 .08333333 .50000000 .00057870
.08333333 .08333333 .58333333 .00057870
.08333333 .08333333 .66666666 .00057870
.08333333 .08333333 .75000000 .00057870
.08333333 .08333333 .83333333 .00057870
.08333333 .08333333 .91666666 .00057870
.08333333 .16666666 0 .00057870
.08333333 .16666666 .08333333 .00057870
.08333333 .16666666 .16666666 .00057870
.08333333 .16666666 .25000000 .00057870
.08333333 .16666666 .33333333 .00057870
.08333333 .16666666 .41666666 .00057870
.08333333 .16666666 .50000000 .00057870
.08333333 .16666666 .58333333 .00057870
.08333333 .16666666 .66666666 .00057870
.08333333 .16666666 .75000000 .00057870
.08333333 .16666666 .83333333 .00057870
.08333333 .16666666 .91666666 .00057870
.08333333 .25000000 0 .00057870
.08333333 .25000000 .08333333 .00057870
.08333333 .25000000 .16666666 .00057870
.08333333 .25000000 .25000000 .00057870
.08333333 .25000000 .33333333 .00057870
.08333333 .25000000 .41666666 .00057870
.08333333 .25000000 .50000000 .00057870
.08333333 .25000000 .58333333 .00057870
.08333333 .25000000 .66666666 .00057870
.08333333 .25000000 .75000000 .00057870
.08333333 .25000000 .83333333 .00057870
.08333333 .25000000 .91666666 .00057870
.08333333 .33333333 0 .00057870
.08333333 .33333333 .08333333 .00057870
.08333333 .33333333 .16666666 .00057870
.08333333 .33333333 .25000000 .00057870
.08333333 .33333333 .33333333 .00057870
.08333333 .33333333 .41666666 .00057870
.08333333 .33333333 .50000000 .00057870
.08333333 .33333333 .58333333 .00057870
.08333333 .33333333 .66666666 .00057870
.08333333 .33333333 .75000000 .00057870
.08333333 .33333333 .83333333 .00057870
.08333333 .33333333 .91666666 .00057870
.08333333 .41666666 0 .00057870
.08333333 .41666666 .08333333 .00057870
.08333333 .41666666 .16666666 .00057870
.08333333 .41666666 .25000000 .00057870
.08333333 .41666666 .33333333 .00057870
.08333333 .41666666 .41666666 .00057870
.08333333 .41666666 .50000000 .00057870
.08333333 .41666666 .58333333 .00057870
.08333333 .41666666 .66666666 .00057870
.08333333 .41666666 .75000000 .00057870
.08333333 .41666666 .83333333 .00057870
.08333333 .41666666 .91666666 .00057870
.08333333 .50000000 0 .00057870
.08333333 .50000000 .08333333 .00057870
.08333333 .50000000 .16666666 .00057870
.08333333 .50000000 .25000000 .00057870
.08333333 .50000000 .33333333 .00057870
.08333333 .50000000 .41666666 .00057870
.08333333 .50000000 .50000000 .00057870
.08333333 .50000000 .58333333 .00057870
.08333333 .50000000 .66666666 .00057870
.08333333 .50000000 .75000000 .00057870
.08333333 .50000000 .83333333 .00057870
.08333333 .50000000 .91666666 .00057870
.08333333 .58333333 0 .00057870
.08333333 .58333333 .08333333 .00057870
.08333333 .58333333 .16666666 .00057870
.08333333 .58333333 .25000000 .00057870
.08333333 .58333333 .33333333 .00057870
.08333333 .58333333 .41666666 .00057870
.08333333 .58333333 .50000000 .00057870
.08333333 .58333333 .58333333 .00057870
.08333333 .58333333 .66666666 .00057870
.08333333 .58333333 .75000000 .00057870
.08333333 .58333333 .83333333 .00057870
.08333333 .58333333 .91666666 .00057870
.08333333 .66666666 0 .00057870
.08333333 .66666666 .08333333 .00057870
.08333333 .66666666 .16666666 .00057870
.08333333 .66666666 .25000000 .00057870
.08333333 .66666666 .33333333 .00057870
.08333333 .66666666 .41666666 .00057870
.08333333 .66666666 .50000000 .00057870
.08333333 .66666666 .58333333 .00057870
.08333333 .66666666 .66666666 .00057870
.08333333 .66666666 .75000000 .00057870
.08333333 .66666666 .83333333 .00057870
.08333333 .66666666 .91666666 .00057870
.08333333 .75000000 0 .00057870
.08333333 .75000000 .08333333 .00057870
.08333333 .75000000 .16666666 .00057870
.08333333 .75000000 .25000000 .00057870
.08333333 .75000000 .33333333 .00057870
.08333333 .75000000 .41666666 .00057870
.08333333 .75000000 .50000000 .00057870
.08333333 .75000000 .58333333 .00057870
.08333333 .75000000 .66666666 .00057870
.08333333 .75000000 .75000000 .00057870
.08333333 .75000000 .83333333 .00057870
.08333333 .75000000 .91666666 .00057870
.08333333 .83333333 0 .00057870
.08333333 .83333333 .08333333 .00057870
.08333333 .83333333 .16666666 .00057870
.08333333 .83333333 .25000000 .00057870
.08333333 .83333333 .33333333 .00057870
.08333333 .83333333 .41666666 .00057870
.08333333 .83333333 .50000000 .00057870
.08333333 .83333333 .58333333 .00057870
.08333333 .83333333 .66666666 .00057870
.08333333 .83333333 .75000000 .00057870
.08333333 .83333333 .83333333 .00057870
.08333333 .83333333 .91666666 .00057870
.08333333 .91666666 0 .00057870
.08333333 .91666666 .08333333 .00057870
.08333333 .91666666 .16666666 .00057870
.08333333 .91666666 .25000000 .00057870
.08333333 .91666666 .33333333 .00057870
.08333333 .91666666 .41666666 .00057870
.08333333 .91666666 .50000000 .00057870
.08333333 .91666666 .58333333 .00057870
.08333333 .91666666 .66666666 .00057870
.08333333 .91666666 .75000000 .00057870
.08333333 .91666666 .83333333 .00057870
.08333333 .91666666 .91666666 .00057870
.16666666 0 0 .00057870
.16666666 0 .08333333 .00057870
.16666666 0 .16666666 .00057870
.16666666 0 .25000000 .00057870
.16666666 0 .33333333 .00057870
.16666666 0 .41666666 .00057870
.16666666 0 .50000000 .00057870
.16666666 0 .58333333 .00057870
.16666666 0 .66666666 .00057870
.16666666 0 .75000000 .00057870
.16666666 0 .83333333 .00057870
.16666666 0 .91666666 .00057870
.16666666 .08333333 0 .00057870
.16666666 .08333333 .08333333 .00057870
.16666666 .08333333 .16666666 .00057870
.16666666 .08333333 .25000000 .00057870
.16666666 .08333333 .33333333 .00057870
.16666666 .08333333 .41666666 .00057870
.16666666 .08333333 .50000000 .00057870
.16666666 .08333333 .58333333 .00057870
.16666666 .08333333 .66666666 .00057870
.16666666 .08333333 .75000000 .00057870
.16666666 .08333333 .83333333 .00057870
.16666666 .08333333 .91666666 .00057870
.16666666 .16666666 0 .00057870
.16666666 .16666666 .08333333 .00057870
.16666666 .16666666 .16666666 .00057870
.16666666 .16666666 .25000000 .00057870
.16666666 .16666666 .33333333 .00057870
.16666666 .16666666 .41666666 .00057870
.16666666 .16666666 .50000000 .00057870
.16666666 .16666666 .58333333 .00057870
.16666666 .16666666 .66666666 .00057870
.16666666 .16666666 .75000000 .00057870
.16666666 .16666666 .83333333 .00057870
.16666666 .16666666 .91666666 .00057870
.16666666 .25000000 0 .00057870
.16666666 .25000000 .08333333 .00057870
.16666666 .25000000 .16666666 .00057870
.16666666 .25000000 .25000000 .00057870
.16666666 .25000000 .33333333 .00057870
.16666666 .25000000 .41666666 .00057870
.16666666 .25000000 .50000000 .00057870
.16666666 .25000000 .58333333 .00057870
.16666666 .25000000 .66666666 .00057870
.16666666 .25000000 .75000000 .00057870
.16666666 .25000000 .83333333 .00057870
.16666666 .25000000 .91666666 .00057870
.16666666 .33333333 0 .00057870
.16666666 .33333333 .08333333 .00057870
.16666666 .33333333 .16666666 .00057870
.16666666 .33333333 .25000000 .00057870
.16666666 .33333333 .33333333 .00057870
.16666666 .33333333 .41666666 .00057870
.16666666 .33333333 .50000000 .00057870
.16666666 .33333333 .58333333 .00057870
.16666666 .33333333 .66666666 .00057870
.16666666 .33333333 .75000000 .00057870
.16666666 .33333333 .83333333 .00057870
.16666666 .33333333 .91666666 .00057870
.16666666 .41666666 0 .00057870
.16666666 .41666666 .08333333 .00057870
.16666666 .41666666 .16666666 .00057870
.16666666 .41666666 .25000000 .00057870
.16666666 .41666666 .33333333 .00057870
.16666666 .41666666 .41666666 .00057870
.16666666 .41666666 .50000000 .00057870
.16666666 .41666666 .58333333 .00057870
.16666666 .41666666 .66666666 .00057870
.16666666 .41666666 .75000000 .00057870
.16666666 .41666666 .83333333 .00057870
.16666666 .41666666 .91666666 .00057870
.16666666 .50000000 0 .00057870
.16666666 .50000000 .08333333 .00057870
.16666666 .50000000 .16666666 .00057870
.16666666 .50000000 .25000000 .00057870
.16666666 .50000000 .33333333 .00057870
.16666666 .50000000 .41666666 .00057870
.16666666 .50000000 .50000000 .00057870
.16666666 .50000000 .58333333 .00057870
.16666666 .50000000 .66666666 .00057870
.16666666 .50000000 .75000000 .00057870
.16666666 .50000000 .83333333 .00057870
.16666666 .50000000 .91666666 .00057870
.16666666 .58333333 0 .00057870
.16666666 .58333333 .08333333 .00057870
.16666666 .58333333 .16666666 .00057870
.16666666 .58333333 .25000000 .00057870
.16666666 .58333333 .33333333 .00057870
.16666666 .58333333 .41666666 .00057870
.16666666 .58333333 .50000000 .00057870
.16666666 .58333333 .58333333 .00057870
.16666666 .58333333 .66666666 .00057870
.16666666 .58333333 .75000000 .00057870
.16666666 .58333333 .83333333 .00057870
.16666666 .58333333 .91666666 .00057870
.16666666 .66666666 0 .00057870
.16666666 .66666666 .08333333 .00057870
.16666666 .66666666 .16666666 .00057870
.16666666 .66666666 .25000000 .00057870
.16666666 .66666666 .33333333 .00057870
.16666666 .66666666 .41666666 .00057870
.16666666 .66666666 .50000000 .00057870
.16666666 .66666666 .58333333 .00057870
.16666666 .66666666 .66666666 .00057870
.16666666 .66666666 .75000000 .00057870
.16666666 .66666666 .83333333 .00057870
.16666666 .66666666 .91666666 .00057870
.16666666 .75000000 0 .00057870
.16666666 .75000000 .08333333 .00057870
.16666666 .75000000 .16666666 .00057870
.16666666 .75000000 .25000000 .00057870
.16666666 .75000000 .33333333 .00057870
.16666666 .75000000 .41666666 .00057870
.16666666 .75000000 .50000000 .00057870
.16666666 .75000000 .58333333 .00057870
.16666666 .75000000 .66666666 .00057870
.16666666 .75000000 .75000000 .00057870
.16666666 .75000000 .83333333 .00057870
.16666666 .75000000 .91666666 .00057870
.16666666 .83333333 0 .00057870
.16666666 .83333333 .08333333 .00057870
.16666666 .83333333 .16666666 .00057870
.16666666 .83333333 .25000000 .00057870
.16666666 .83333333 .33333333 .00057870
.16666666 .83333333 .41666666 .00057870
.16666666 .83333333 .50000000 .00057870
.16666666 .83333333 .58333333 .00057870
.16666666 .83333333 .66666666 .00057870
.16666666 .83333333 .75000000 .00057870
.16666666 .83333333 .83333333 .00057870
.16666666 .83333333 .91666666 .00057870
.16666666 .91666666 0 .00057870
.16666666 .91666666 .08333333 .00057870
.16666666 .91666666 .16666666 .00057870
.16666666 .91666666 .25000000 .00057870
.16666666 .91666666 .33333333 .00057870
.16666666 .91666666 .41666666 .00057870
.16666666 .91666666 .50000000 .00057870
.16666666 .91666666 .58333333 .00057870
.16666666 .91666666 .66666666 .00057870
.16666666 .91666666 .75000000 .00057870
.16666666 .91666666 .83333333 .00057870
.16666666 .91666666 .91666666 .00057870
.25000000 0 0 .00057870
.25000000 0 .08333333 .00057870
.25000000 0 .16666666 .00057870
.25000000 0 .25000000 .00057870
.25000000 0 .33333333 .00057870
.25000000 0 .41666666 .00057870
.25000000 0 .50000000 .00057870
.25000000 0 .58333333 .00057870
.25000000 0 .66666666 .00057870
.25000000 0 .75000000 .00057870
.25000000 0 .83333333 .00057870
.25000000 0 .91666666 .00057870
.25000000 .08333333 0 .00057870
.25000000 .08333333 .08333333 .00057870
.25000000 .08333333 .16666666 .00057870
.25000000 .08333333 .25000000 .00057870
.25000000 .08333333 .33333333 .00057870
.25000000 .08333333 .41666666 .00057870
.25000000 .08333333 .50000000 .00057870
.25000000 .08333333 .58333333 .00057870
.25000000 .08333333 .66666666 .00057870
.25000000 .08333333 .75000000 .00057870
.25000000 .08333333 .83333333 .00057870
.25000000 .08333333 .91666666 .00057870
.25000000 .16666666 0 .00057870
.25000000 .16666666 .08333333 .00057870
.25000000 .16666666 .16666666 .00057870
.25000000 .16666666 .25000000 .00057870
.25000000 .16666666 .33333333 .00057870
.25000000 .16666666 .41666666 .00057870
.25000000 .16666666 .50000000 .00057870
.25000000 .16666666 .58333333 .00057870
.25000000 .16666666 .66666666 .00057870
.25000000 .16666666 .75000000 .00057870
.25000000 .16666666 .83333333 .00057870
.25000000 .16666666 .91666666 .00057870
.25000000 .25000000 0 .00057870
.25000000 .25000000 .08333333 .00057870
.25000000 .25000000 .16666666 .00057870
.25000000 .25000000 .25000000 .00057870
.25000000 .25000000 .33333333 .00057870
.25000000 .25000000 .41666666 .00057870
.25000000 .25000000 .50000000 .00057870
.25000000 .25000000 .58333333 .00057870
.25000000 .25000000 .66666666 .00057870
.25000000 .25000000 .75000000 .00057870
.25000000 .25000000 .83333333 .00057870
.25000000 .25000000 .91666666 .00057870
.25000000 .33333333 0 .00057870
.25000000 .33333333 .08333333 .00057870
.25000000 .33333333 .16666666 .00057870
.25000000 .33333333 .25000000 .00057870
.25000000 .33333333 .33333333 .00057870
.25000000 .33333333 .41666666 .00057870
.25000000 .33333333 .50000000 .00057870
.25000000 .33333333 .58333333 .00057870
.25000000 .33333333 .66666666 .00057870
.25000000 .33333333 .75000000 .00057870
.25000000 .33333333 .83333333 .00057870
.25000000 .33333333 .91666666 .00057870
.25000000 .41666666 0 .00057870
.25000000 .41666666 .08333333 .00057870
.25000000 .41666666 .16666666 .00057870
.25000000 .41666666 .25000000 .00057870
.25000000 .41666666 .33333333 .00057870
.25000000 .41666666 .41666666 .00057870
.25000000 .41666666 .50000000 .00057870
.25000000 .41666666 .58333333 .00057870
.25000000 .41666666 .66666666 .00057870
.25000000 .41666666 .75000000 .00057870
.25000000 .41666666 .83333333 .00057870
.25000000 .41666666 .91666666 .00057870
.25000000 .50000000 0 .00057870
.25000000 .50000000 .08333333 .00057870
.25000000 .50000000 .16666666 .00057870
.25000000 .50000000 .25000000 .00057870
.25000000 .50000000 .33333333 .00057870
.25000000 .50000000 .41666666 .00057870
.25000000 .50000000 .50000000 .00057870
.25000000 .50000000 .58333333 .00057870
.25000000 .50000000 .66666666 .00057870
.25000000 .50000000 .75000000 .00057870
.25000000 .50000000 .83333333 .00057870
.25000000 .50000000 .91666666 .00057870
.25000000 .58333333 0 .00057870
.25000000 .58333333 .08333333 .00057870
.25000000 .58333333 .16666666 .00057870
.25000000 .58333333 .25000000 .00057870
.25000000 .58333333 .33333333 .00057870
.25000000 .58333333 .41666666 .00057870
.25000000 .58333333 .50000000 .00057870
.25000000 .58333333 .58333333 .00057870
.25000000 .58333333 .66666666 .00057870
.25000000 .58333333 .75000000 .00057870
.25000000 .58333333 .83333333 .00057870
.25000000 .58333333 .91666666 .00057870
.25000000 .66666666 0 .00057870
.25000000 .66666666 .08333333 .00057870
.25000000 .66666666 .16666666 .00057870
.25000000 .66666666 .25000000 .00057870
.25000000 .66666666 .33333333 .00057870
.25000000 .66666666 .41666666 .00057870
.25000000 .66666666 .50000000 .00057870
.25000000 .66666666 .58333333 .00057870
.25000000 .66666666 .66666666 .00057870
.25000000 .66666666 .75000000 .00057870
.25000000 .66666666 .83333333 .00057870
.25000000 .66666666 .91666666 .00057870
.25000000 .75000000 0 .00057870
.25000000 .75000000 .08333333 .00057870
.25000000 .75000000 .16666666 .00057870
.25000000 .75000000 .25000000 .00057870
.25000000 .75000000 .33333333 .00057870
.25000000 .75000000 .41666666 .00057870
.25000000 .75000000 .50000000 .00057870
.25000000 .75000000 .58333333 .00057870
.25000000 .75000000 .66666666 .00057870
.25000000 .75000000 .75000000 .00057870
.25000000 .75000000 .83333333 .00057870
.25000000 .75000000 .91666666 .00057870
.25000000 .83333333 0 .00057870
.25000000 .83333333 .08333333 .00057870
.25000000 .83333333 .16666666 .00057870
.25000000 .83333333 .25000000 .00057870
.25000000 .83333333 .33333333 .00057870
.25000000 .83333333 .41666666 .00057870
.25000000 .83333333 .50000000 .00057870
.25000000 .83333333 .58333333 .00057870
.25000000 .83333333 .66666666 .00057870
.25000000 .83333333 .75000000 .00057870
.25000000 .83333333 .83333333 .00057870
.25000000 .83333333 .91666666 .00057870
.25000000 .91666666 0 .00057870
.25000000 .91666666 .08333333 .00057870
.25000000 .91666666 .16666666 .00057870
.25000000 .91666666 .25000000 .00057870
.25000000 .91666666 .33333333 .00057870
.25000000 .91666666 .41666666 .00057870
.25000000 .91666666 .50000000 .00057870
.25000000 .91666666 .58333333 .00057870
.25000000 .91666666 .66666666 .00057870
.25000000 .91666666 .75000000 .00057870
.25000000 .91666666 .83333333 .00057870
.25000000 .91666666 .91666666 .00057870
.33333333 0 0 .00057870
.33333333 0 .08333333 .00057870
.33333333 0 .16666666 .00057870
.33333333 0 .25000000 .00057870
.33333333 0 .33333333 .00057870
.33333333 0 .41666666 .00057870
.33333333 0 .50000000 .00057870
.33333333 0 .58333333 .00057870
.33333333 0 .66666666 .00057870
.33333333 0 .75000000 .00057870
.33333333 0 .83333333 .00057870
.33333333 0 .91666666 .00057870
.33333333 .08333333 0 .00057870
.33333333 .08333333 .08333333 .00057870
.33333333 .08333333 .16666666 .00057870
.33333333 .08333333 .25000000 .00057870
.33333333 .08333333 .33333333 .00057870
.33333333 .08333333 .41666666 .00057870
.33333333 .08333333 .50000000 .00057870
.33333333 .08333333 .58333333 .00057870
.33333333 .08333333 .66666666 .00057870
.33333333 .08333333 .75000000 .00057870
.33333333 .08333333 .83333333 .00057870
.33333333 .08333333 .91666666 .00057870
.33333333 .16666666 0 .00057870
.33333333 .16666666 .08333333 .00057870
.33333333 .16666666 .16666666 .00057870
.33333333 .16666666 .25000000 .00057870
.33333333 .16666666 .33333333 .00057870
.33333333 .16666666 .41666666 .00057870
.33333333 .16666666 .50000000 .00057870
.33333333 .16666666 .58333333 .00057870
.33333333 .16666666 .66666666 .00057870
.33333333 .16666666 .75000000 .00057870
.33333333 .16666666 .83333333 .00057870
.33333333 .16666666 .91666666 .00057870
.33333333 .25000000 0 .00057870
.33333333 .25000000 .08333333 .00057870
.33333333 .25000000 .16666666 .00057870
.33333333 .25000000 .25000000 .00057870
.33333333 .25000000 .33333333 .00057870
.33333333 .25000000 .41666666 .00057870
.33333333 .25000000 .50000000 .00057870
.33333333 .25000000 .58333333 .00057870
.33333333 .25000000 .66666666 .00057870
.33333333 .25000000 .75000000 .00057870
.33333333 .25000000 .83333333 .00057870
.33333333 .25000000 .91666666 .00057870
.33333333 .33333333 0 .00057870
.33333333 .33333333 .08333333 .00057870
.33333333 .33333333 .16666666 .00057870
.33333333 .33333333 .25000000 .00057870
.33333333 .33333333 .33333333 .00057870
.33333333 .33333333 .41666666 .00057870
.33333333 .33333333 .50000000 .00057870
.33333333 .33333333 .58333333 .00057870
.33333333 .33333333 .66666666 .00057870
.33333333 .33333333 .75000000 .00057870
.33333333 .33333333 .83333333 .00057870
.33333333 .33333333 .91666666 .00057870
.33333333 .41666666 0 .00057870
.33333333 .41666666 .08333333 .00057870
.33333333 .41666666 .16666666 .00057870
.33333333 .41666666 .25000000 .00057870
.33333333 .41666666 .33333333 .00057870
.33333333 .41666666 .41666666 .00057870
.33333333 .41666666 .50000000 .00057870
.33333333 .41666666 .58333333 .00057870
.33333333 .41666666 .66666666 .00057870
.33333333 .41666666 .75000000 .00057870
.33333333 .41666666 .83333333 .00057870
.33333333 .41666666 .91666666 .00057870
.33333333 .50000000 0 .00057870
.33333333 .50000000 .08333333 .00057870
.33333333 .50000000 .16666666 .00057870
.33333333 .50000000 .25000000 .00057870
.33333333 .50000000 .33333333 .00057870
.33333333 .50000000 .41666666 .00057870
.33333333 .50000000 .50000000 .00057870
.33333333 .50000000 .58333333 .00057870
.33333333 .50000000 .66666666 .00057870
.33333333 .50000000 .75000000 .00057870
.33333333 .50000000 .83333333 .00057870
.33333333 .50000000 .91666666 .00057870
.33333333 .58333333 0 .00057870
.33333333 .58333333 .08333333 .00057870
.33333333 .58333333 .16666666 .00057870
.33333333 .58333333 .25000000 .00057870
.33333333 .58333333 .33333333 .00057870
.33333333 .58333333 .41666666 .00057870
.33333333 .58333333 .50000000 .00057870
.33333333 .58333333 .58333333 .00057870
.33333333 .58333333 .66666666 .00057870
.33333333 .58333333 .75000000 .00057870
.33333333 .58333333 .83333333 .00057870
.33333333 .58333333 .91666666 .00057870
.33333333 .66666666 0 .00057870
.33333333 .66666666 .08333333 .00057870
.33333333 .66666666 .16666666 .00057870
.33333333 .66666666 .25000000 .00057870
.33333333 .66666666 .33333333 .00057870
.33333333 .66666666 .41666666 .00057870
.33333333 .66666666 .50000000 .00057870
.33333333 .66666666 .58333333 .00057870
.33333333 .66666666 .66666666 .00057870
.33333333 .66666666 .75000000 .00057870
.33333333 .66666666 .83333333 .00057870
.33333333 .66666666 .91666666 .00057870
.33333333 .75000000 0 .00057870
.33333333 .75000000 .08333333 .00057870
.33333333 .75000000 .16666666 .00057870
.33333333 .75000000 .25000000 .00057870
.33333333 .75000000 .33333333 .00057870
.33333333 .75000000 .41666666 .00057870
.33333333 .75000000 .50000000 .00057870
.33333333 .75000000 .58333333 .00057870
.33333333 .75000000 .66666666 .00057870
.33333333 .75000000 .75000000 .00057870
.33333333 .75000000 .83333333 .00057870
.33333333 .75000000 .91666666 .00057870
.33333333 .83333333 0 .00057870
.33333333 .83333333 .08333333 .00057870
.33333333 .83333333 .16666666 .00057870
.33333333 .83333333 .25000000 .00057870
.33333333 .83333333 .33333333 .00057870
.33333333 .83333333 .41666666 .00057870
.33333333 .83333333 .50000000 .00057870
.33333333 .83333333 .58333333 .00057870
.33333333 .83333333 .66666666 .00057870
.33333333 .83333333 .75000000 .00057870
.33333333 .83333333 .83333333 .00057870
.33333333 .83333333 .91666666 .00057870
.33333333 .91666666 0 .00057870
.33333333 .91666666 .08333333 .00057870
.33333333 .91666666 .16666666 .00057870
.33333333 .91666666 .25000000 .00057870
.33333333 .91666666 .33333333 .00057870
.33333333 .91666666 .41666666 .00057870
.33333333 .91666666 .50000000 .00057870
.33333333 .91666666 .58333333 .00057870
.33333333 .91666666 .66666666 .00057870
.33333333 .91666666 .75000000 .00057870
.33333333 .91666666 .83333333 .00057870
.33333333 .91666666 .91666666 .00057870
.41666666 0 0 .00057870
.41666666 0 .08333333 .00057870
.41666666 0 .16666666 .00057870
.41666666 0 .25000000 .00057870
.41666666 0 .33333333 .00057870
.41666666 0 .41666666 .00057870
.41666666 0 .50000000 .00057870
.41666666 0 .58333333 .00057870
.41666666 0 .66666666 .00057870
.41666666 0 .75000000 .00057870
.41666666 0 .83333333 .00057870
.41666666 0 .91666666 .00057870
.41666666 .08333333 0 .00057870
.41666666 .08333333 .08333333 .00057870
.41666666 .08333333 .16666666 .00057870
.41666666 .08333333 .25000000 .00057870
.41666666 .08333333 .33333333 .00057870
.41666666 .08333333 .41666666 .00057870
.41666666 .08333333 .50000000 .00057870
.41666666 .08333333 .58333333 .00057870
.41666666 .08333333 .66666666 .00057870
.41666666 .08333333 .75000000 .00057870
.41666666 .08333333 .83333333 .00057870
.41666666 .08333333 .91666666 .00057870
.41666666 .16666666 0 .00057870
.41666666 .16666666 .08333333 .00057870
.41666666 .16666666 .16666666 .00057870
.41666666 .16666666 .25000000 .00057870
.41666666 .16666666 .33333333 .00057870
.41666666 .16666666 .41666666 .00057870
.41666666 .16666666 .50000000 .00057870
.41666666 .16666666 .58333333 .00057870
.41666666 .16666666 .66666666 .00057870
.41666666 .16666666 .75000000 .00057870
.41666666 .16666666 .83333333 .00057870
.41666666 .16666666 .91666666 .00057870
.41666666 .25000000 0 .00057870
.41666666 .25000000 .08333333 .00057870
.41666666 .25000000 .16666666 .00057870
.41666666 .25000000 .25000000 .00057870
.41666666 .25000000 .33333333 .00057870
.41666666 .25000000 .41666666 .00057870
.41666666 .25000000 .50000000 .00057870
.41666666 .25000000 .58333333 .00057870
.41666666 .25000000 .66666666 .00057870
.41666666 .25000000 .75000000 .00057870
.41666666 .25000000 .83333333 .00057870
.41666666 .25000000 .91666666 .00057870
.41666666 .33333333 0 .00057870
.41666666 .33333333 .08333333 .00057870
.41666666 .33333333 .16666666 .00057870
.41666666 .33333333 .25000000 .00057870
.41666666 .33333333 .33333333 .00057870
.41666666 .33333333 .41666666 .00057870
.41666666 .33333333 .50000000 .00057870
.41666666 .33333333 .58333333 .00057870
.41666666 .33333333 .66666666 .00057870
.41666666 .33333333 .75000000 .00057870
.41666666 .33333333 .83333333 .00057870
.41666666 .33333333 .91666666 .00057870
.41666666 .41666666 0 .00057870
.41666666 .41666666 .08333333 .00057870
.41666666 .41666666 .16666666 .00057870
.41666666 .41666666 .25000000 .00057870
.41666666 .41666666 .33333333 .00057870
.41666666 .41666666 .41666666 .00057870
.41666666 .41666666 .50000000 .00057870
.41666666 .41666666 .58333333 .00057870
.41666666 .41666666 .66666666 .00057870
.41666666 .41666666 .75000000 .00057870
.41666666 .41666666 .83333333 .00057870