&control
calculation='vc-relax',
prefix='bicu2',
pseudo_dir='./',
outdir='./'
disk_io = 'none'
/
&system
ibrav=0,
nat=6,
ntyp=2,
ecutwfc=80,
ecutrho=400,
occupations = 'smearing' 
degauss = 0.005
/
&electrons
conv_thr=1.0d-8
/
&ions
/
&cell
/

ATOMIC_SPECIES
Bi 1.0 Bi.pbe-dn-rrkjus_psl.0.2.2.UPF
Cu 1.0 Cu.pbe-dn-rrkjus_psl.0.2.UPF

CELL_PARAMETERS (angstrom)
   5.050349513  -0.000000000  -0.000000000
   2.525174756   4.373730976   0.000000000
   2.525174756   1.457910325   4.123585212

ATOMIC_POSITIONS (crystal)
Bi      -0.000000948  -0.000000948   0.000002843
Bi       0.250000948   0.250000948   0.249997157
Cu       0.125000000   0.625000000   0.625000000
Cu       0.625000000   0.625000000   0.625000000
Cu       0.625000000   0.125000000   0.625000000
Cu       0.625000000   0.625000000   0.125000000

K_POINTS automatic
15 15 15 0 0 0
