&control
calculation='vc-relax',
prefix='biagcl6',
pseudo_dir='./',
outdir='./'
disk_io = 'none'
/
&system
ibrav=0,
nat=32,
ntyp=3,
ecutwfc=80,
ecutrho=400,
occupations = 'smearing' 
degauss = 0.005
/
&electrons
conv_thr=1.0d-8
/
&ions
/
&cell
/

ATOMIC_SPECIES
Bi 1.0 Bi.pbe-dn-rrkjus_psl.0.2.2.UPF
Ag 1.0 Ag.pbe-dn-rrkjus_psl.0.1.UPF
Cl 1.0 Cl.pbe-n-rrkjus_psl.0.1.UPF

CELL_PARAMETERS (angstrom)
   8.317931561   0.004535844  -0.128112909
  -4.075906107   9.294507942   0.108968357
  -1.934568594  -4.236716316  13.612642222

ATOMIC_POSITIONS (crystal)
Bi       0.589517377   0.928299918   0.621248360
Bi       0.035871164   0.683643387   0.127352769
Bi       0.410482623   0.071700060   0.378751610
Bi       0.964128851   0.316356613   0.872647245
Ag       0.288886384   0.628659834   0.764839720
Ag       0.500000000   0.500000000   0.500000000
Ag       0.711113586   0.371340195   0.235160295
Ag       0.000000000   0.000000000   0.000000000
Cl       0.791063251   0.097525689   0.972779023
Cl       0.711838290   0.155411227   0.265285829
Cl       0.288161710   0.844588758   0.734714171
Cl       0.781584274   0.790223674   0.027479339
Cl       0.624667723   0.192234925   0.737429987
Cl       0.289090942   0.410622820   0.794171913
Cl       0.710909058   0.589377180   0.205828087
Cl       0.308100649   0.615503450   0.492268200
Cl       0.218415712   0.209776341   0.972520659
Cl       0.748051854   0.733956408   0.531755273
Cl       0.208936734   0.902474304   0.027220966
Cl       0.723897580   0.058188672   0.490327085
Cl       0.583971085   0.710538313   0.747715403
Cl       0.932343543   0.050084464   0.732662210
Cl       0.251948176   0.266043592   0.468244727
Cl       0.375332277   0.807765045   0.262570013
Cl       0.989735930   0.543956584   0.779904325
Cl       0.769185754   0.432272124   0.970734954
Cl       0.230814246   0.567727876   0.029265051
Cl       0.010264050   0.456043416   0.220095689
Cl       0.416028944   0.289461687   0.252284626
Cl       0.276102391   0.941811339   0.509672886
Cl       0.691899381   0.384496520   0.507731800
Cl       0.067656449   0.949915551   0.267337761

K_POINTS automatic
3 3 3 0 0 0
