&control
calculation='scf',
prefix='csag2i3',
pseudo_dir='./',
outdir='./'
disk_io = 'none'
/
&system
ibrav=0,
nat=24,
ntyp=3,
ecutwfc=20,
ecutrho=100,
occupations = 'smearing' 
degauss = 0.005
/
&electrons
conv_thr=1.0d-8
/
&ions
/
&cell
/

ATOMIC_SPECIES
Cs 1.0 Cs.pz-sp-hgh.UPF
Ag 1.0 Ag.pz-dn-rrkjus_psl.0.1.UPF
I 1.0 I.pz-n-rrkjus_psl.0.2.UPF

CELL_PARAMETERS {angstrom}
        6.0892901421         0.0000000000         0.0000000000
        0.0000000000        11.6728219986         0.0000000000
        0.0000000000         0.0000000000        14.5784921646

ATOMIC_POSITIONS {crystal}
Cs	     0.250000000         0.994485021         0.695571005
Cs	     0.750000000         0.005515000         0.304428995
Cs	     0.750000000         0.494484991         0.804428995
Cs	     0.250000000         0.505514979         0.195571005
Ag	     0.499276012         0.330608010         0.498627990
Ag	     0.500724018         0.830608010         0.001372000
Ag	     0.000724000         0.169392005         0.998628020
Ag	     0.999275982         0.669391990         0.501371980
Ag	     0.000724000         0.330608010         0.498627990
Ag	     0.500724018         0.669391990         0.501371980
Ag	     0.999275982         0.830608010         0.001372000
Ag	     0.499276012         0.169392005         0.998628020
I	     0.250000000         0.797792017         0.373796999
I	     0.250000000         0.702207983         0.873796999
I	     0.750000000         0.202207997         0.626203001
I	     0.750000000         0.297791988         0.126203001
I	     0.250000000         0.214537993         0.362632990
I	     0.750000000         0.785462022         0.637367010
I	     0.750000000         0.714537978         0.137366995
I	     0.250000000         0.285461992         0.862632990
I	     0.250000000         0.497891009         0.612666011
I	     0.750000000         0.502108991         0.387333989
I	     0.750000000         0.997891009         0.887333989
I	     0.250000000         0.002109000         0.112666003

K_POINTS automatic
   1   1   1   0   0   0
