&control
calculation='vc-relax',
prefix='cs2cui4',
pseudo_dir='./',
outdir='./'
disk_io = 'none'
/
&system
ibrav=0,
nat=28,
ntyp=3,
ecutwfc=80,
ecutrho=400,
occupations = 'smearing' 
degauss = 0.005
/
&electrons
conv_thr=1.0d-8
/
&ions
/
&cell
/

ATOMIC_SPECIES
Cs 1.0 Cs.pbe-sp-hgh.UPF
Cu 1.0 Cu.pbe-dn-rrkjus_psl.0.2.UPF
I 1.0 I.pbe-n-rrkjus_psl.0.2.UPF


CELL_PARAMETERS (angstrom)
   7.229884094   0.000000000   0.000000000
   0.000000000   9.502997457   0.000000000
   0.000000000   0.000000000  11.803995083

ATOMIC_POSITIONS (crystal)
Cs       0.250000000   0.134818223   0.893213318
Cs       0.750000000   0.365181792   0.393213318
Cs       0.250000000   0.634818238   0.606786682
Cs       0.250000000   0.016197221   0.332633382
Cs       0.750000000   0.983802799   0.667366618
Cs       0.750000000   0.865181762   0.106786667
Cs       0.250000000   0.516197201   0.167366603
Cs       0.750000000   0.483802769   0.832633382
Cu       0.250000000   0.731198033   0.915991096
Cu       0.250000000   0.231198018   0.584008904
Cu       0.750000000   0.768801967   0.415991066
Cu       0.750000000   0.268801967   0.084008919
I       0.528796500   0.285219773   0.640582855
I       0.971203500   0.285219773   0.640582855
I       0.528796500   0.785219773   0.859417145
I       0.250000000   0.355689469   0.425514301
I       0.028796523   0.714780227   0.359417145
I       0.250000000   0.855689499   0.074485684
I       0.471203470   0.214780212   0.140582855
I       0.750000000   0.497809429   0.125038430
I       0.971203500   0.785219773   0.859417145
I       0.250000000   0.502190571   0.874961577
I       0.028796523   0.214780212   0.140582855
I       0.750000000   0.997809429   0.374961577
I       0.471203470   0.714780227   0.359417145
I       0.750000000   0.644310501   0.574485669
I       0.750000000   0.144310516   0.925514331
I       0.250000000   0.002190583   0.625038423

K_POINTS automatic
3 3 3 0 0 0
