&control
calculation='scf',
prefix='cs2cucl4',
pseudo_dir='./',
outdir='./'
disk_io = 'none'
/
&system
ibrav=0,
nat=28,
ntyp=3,
ecutwfc=20,
ecutrho=100,
occupations = 'smearing' 
degauss = 0.005
/
&electrons
conv_thr=1.0d-8
/
&ions
/
&cell
/

ATOMIC_SPECIES
Cs 1.0 Cs.pz-sp-hgh.UPF
Cu 1.0 Cu.pz-dn-rrkjus_psl.0.2.UPF
Cl 1.0 Cl.pz-n-rrkjus_psl.0.1.UPF

CELL_PARAMETERS {angstrom}
        7.7823820114         0.0000000000         0.0000000000
        0.0000000000         9.9615678787         0.0000000000
        0.0000000000         0.0000000000        12.3900051117

ATOMIC_POSITIONS {crystal}
Cs	     0.250000000         0.133781001         0.897715986
Cs	     0.750000000         0.366219014         0.397715986
Cs	     0.250000000         0.633781016         0.602284014
Cs	     0.250000000         0.008904000         0.326772988
Cs	     0.750000000         0.991096020         0.673227012
Cs	     0.750000000         0.866218984         0.102283999
Cs	     0.250000000         0.508903980         0.173226997
Cs	     0.750000000         0.491095990         0.826772988
Cu	     0.250000000         0.731934011         0.915996015
Cu	     0.250000000         0.231933996         0.584003985
Cu	     0.750000000         0.768065989         0.415995985
Cu	     0.750000000         0.268065989         0.084004000
Cl	     0.516363978         0.282541990         0.640504003
Cl	     0.983636022         0.282541990         0.640504003
Cl	     0.516363978         0.782541990         0.859495997
Cl	     0.250000000         0.357921988         0.430709988
Cl	     0.016364001         0.717458010         0.359495997
Cl	     0.250000000         0.857922018         0.069289997
Cl	     0.483635992         0.217457995         0.140504003
Cl	     0.750000000         0.492451012         0.119133003
Cl	     0.983636022         0.782541990         0.859495997
Cl	     0.250000000         0.507548988         0.880867004
Cl	     0.016364001         0.217457995         0.140504003
Cl	     0.750000000         0.992451012         0.380867004
Cl	     0.483635992         0.717458010         0.359495997
Cl	     0.750000000         0.642077982         0.569289982
Cl	     0.750000000         0.142077997         0.930710018
Cl	     0.250000000         0.007549000         0.619132996

K_POINTS automatic
   7   7   7   0   0   0
