&control
calculation='scf',
prefix='cs3sb2br9',
pseudo_dir='./',
outdir='./'
disk_io = 'none'
/
&system
ibrav=0,
nat=14,
ntyp=3,
ecutwfc=20,
ecutrho=100,
occupations = 'smearing' 
degauss = 0.005
/
&electrons
conv_thr=1.0d-8
/
&ions
/
&cell
/

ATOMIC_SPECIES
Cs 1.0 Cs.pz-sp-hgh.UPF
Sb 1.0 Sb.pz-dn-rrkjus_psl.0.3.1.UPF
Br 1.0 Br.pz-n-rrkjus_psl.0.2.UPF

CELL_PARAMETERS {angstrom}
        8.1413469315         0.0000000000         0.0000000000
       -4.0706734657         7.0506132637         0.0000000000
        0.0000000000         0.0000000000         9.9125871658

ATOMIC_POSITIONS {crystal}
Cs	     0.666666985         0.333332986         0.322219998
Cs	     0.333332986         0.666666985         0.677779973
Cs	     0.000000000         0.000000000         0.000000000
Sb	     0.666666985         0.333332986         0.813337982
Sb	     0.333332986         0.666666985         0.186662003
Br	     0.652826011         0.826412976         0.335224003
Br	     0.826412976         0.652826011         0.664776027
Br	     0.173586994         0.826412976         0.335224003
Br	     0.500000000         0.500000000         0.000000000
Br	     0.826412976         0.173586994         0.664776027
Br	     0.347173989         0.173586994         0.664776027
Br	     0.173586994         0.347173989         0.335224003
Br	     0.500000000         0.000000000         0.000000000
Br	     0.000000000         0.500000000         0.000000000

K_POINTS automatic
   9   9   9   0   0   0
