&control
calculation='vc-relax',
prefix='cscl3',
pseudo_dir='./',
outdir='./'
disk_io = 'none'
/
&system
ibrav=0,
nat=16,
ntyp=2,
ecutwfc=80,
ecutrho=400,
occupations = 'smearing' 
degauss = 0.005
/
&electrons
conv_thr=1.0d-8
/
&ions
/
&cell
/

ATOMIC_SPECIES
Cs 1.0 Cs.pz-sp-hgh.UPF
Cl 1.0 Cl.pz-n-rrkjus_psl.0.1.UPF

CELL_PARAMETERS (angstrom)
   6.334771447   0.000000000   0.000000000
   0.000000000   8.678298269   0.000014499
   0.000000000   0.000016514   9.306754308

ATOMIC_POSITIONS (crystal)
Cs       0.250000000   0.472929204   0.817034378
Cs       0.750000000   0.527070826   0.182965593
Cs       0.750000000   0.972929329   0.682966717
Cs       0.250000000   0.027070653   0.317033312
Cl       0.250000000   0.389698238   0.181350348
Cl       0.750000000   0.610301733   0.818649623
Cl       0.750000000   0.889701285   0.318647075
Cl       0.250000000   0.110298730   0.681352954
Cl       0.250000000   0.554896530   0.361767492
Cl       0.750000000   0.445103470   0.638232538
Cl       0.750000000   0.054899456   0.138231724
Cl       0.250000000   0.945100540   0.861768246
Cl       0.250000000   0.729574740   0.550163836
Cl       0.750000000   0.270425260   0.449836193
Cl       0.750000000   0.229575096   0.949838359
Cl       0.250000000   0.770424904   0.050161619

K_POINTS automatic
2 2 2 0 0 0
