&control
calculation='vc-relax',
prefix='cscl3',
pseudo_dir='./',
outdir='./'
disk_io = 'none'
/
&system
ibrav=0,
nat=16,
ntyp=2,
ecutwfc=80,
ecutrho=400,
occupations = 'smearing' 
degauss = 0.005
/
&electrons
conv_thr=1.0d-8
/
&ions
/
&cell
/

ATOMIC_SPECIES
Cs 1.0 Cs.pbe-sp-hgh.UPF
Cl 1.0 Cl.pbe-n-rrkjus_psl.0.1.UPF

CELL_PARAMETERS {angstrom}
        7.2265782356         0.0000000000         0.0000000000
        0.0000000000        10.4659051895         0.0000000000
        0.0000000000         0.0000000000        11.3180112839

ATOMIC_POSITIONS {crystal}
Cs           0.250000000         0.470580012         0.822848976
Cs           0.750000000         0.529420018         0.177150995
Cs           0.750000000         0.970579982         0.677151024
Cs           0.250000000         0.029420000         0.322849005
Cl            0.250000000         0.367527992         0.168222994
Cl            0.750000000         0.632471979         0.831776977
Cl            0.750000000         0.867528021         0.331777006
Cl            0.250000000         0.132471994         0.668223023
Cl            0.250000000         0.555332005         0.370267004
Cl            0.750000000         0.444667995         0.629733026
Cl            0.750000000         0.055332001         0.129732996
Cl            0.250000000         0.944667995         0.870266974
Cl            0.250000000         0.736151993         0.564719021
Cl            0.750000000         0.263848007         0.435281008
Cl            0.750000000         0.236151993         0.935280979
Cl            0.250000000         0.763848007         0.064718999

K_POINTS automatic
2 2 2 0 0 0
