&control
calculation='scf',
prefix='cssbcl6',
pseudo_dir='./',
outdir='./'
disk_io = 'none'
/
&system
ibrav=0,
nat=16,
ntyp=3,
ecutwfc=20,
ecutrho=100,
occupations = 'smearing' 
degauss = 0.005
/
&electrons
conv_thr=1.0d-8
/
&ions
/
&cell
/

ATOMIC_SPECIES
Cs 1.0 Cs.pz-sp-hgh.UPF
Sb 1.0 Sb.pz-dn-rrkjus_psl.0.3.1.UPF
Cl 1.0 Cl.pz-n-rrkjus_psl.0.1.UPF

CELL_PARAMETERS {angstrom}
        7.2369747162         0.0000000000         0.0000000000
       -4.0654034321         5.9871777974         0.0000000000
       -2.4936046337         1.3209303478        12.6221961393

ATOMIC_POSITIONS {crystal}
Cs	     0.878525019         0.878525019         0.250000000
Cs	     0.121475004         0.121475004         0.750000000
Sb	     0.500000000         0.000000000         0.500000000
Sb	     0.000000000         0.500000000         0.000000000
Cl	     0.455109000         0.288049012         0.394199997
Cl	     0.711951017         0.544891000         0.894200027
Cl	     0.803580999         0.370750993         0.154455006
Cl	     0.544891000         0.711951017         0.605799973
Cl	     0.629248977         0.196419001         0.654455006
Cl	     0.196419001         0.629248977         0.845544994
Cl	     0.199002996         0.881937027         0.041108999
Cl	     0.118063003         0.800997019         0.541109025
Cl	     0.800997019         0.118063003         0.958890975
Cl	     0.370750993         0.803580999         0.345544994
Cl	     0.881937027         0.199002996         0.458891004
Cl	     0.288049012         0.455109000         0.105800003

K_POINTS automatic
   14   14   14    0    0    0
