&control
calculation='vc-relax',
prefix='cs2aubr4',
pseudo_dir='./',
outdir='./'
disk_io = 'none'
/
&system
ibrav=0,
nat=28,
ntyp=3,
ecutwfc=80,
ecutrho=400,
occupations = 'smearing' 
degauss = 0.005
/
&electrons
conv_thr=1.0d-8
/
&ions
/
&cell
/

ATOMIC_SPECIES
Cs 1.0 Cs.pbe-sp-hgh.UPF
Au 1.0 Au.pbe-dn-rrkjus_psl.0.1.UPF
Br 1.0 Br.pbe-n-rrkjus_psl.0.2.UPF       


CELL_PARAMETERS (angstrom)
   8.440558387   0.000000000   0.000000000
   0.000000000  10.500627267   0.000121444
   0.000000000   0.000103568  14.005369276

ATOMIC_POSITIONS (crystal)
Cs       0.250000000   0.158257338   0.913847780
Cs       0.750000000   0.341742388   0.413838086
Cs       0.250000000   0.658257642   0.586161914
Cs       0.250000000   0.072866408   0.296436550
Cs       0.750000000   0.927133612   0.703563450
Cs       0.750000000   0.841742647   0.086152205
Cs       0.250000000   0.572871749   0.203567403
Cs       0.750000000   0.427128221   0.796432582
Au       0.250000000   0.692639798   0.897083480
Au       0.250000000   0.192640493   0.602916223
Au       0.750000000   0.807359492   0.397083747
Au       0.750000000   0.307360202   0.102916535
Br       0.554455003   0.213392614   0.622307700
Br       0.945544997   0.213392614   0.622307700
Br       0.554483383   0.713398697   0.877675647
Br       0.250000000   0.352229971   0.457983707
Br       0.054455026   0.786607386   0.377692300
Br       0.250000000   0.852234491   0.042027277
Br       0.445516587   0.286601288   0.122324353
Br       0.750000000   0.521117480   0.198076275
Br       0.945516617   0.713398697   0.877675647
Br       0.250000000   0.478882520   0.801923732
Br       0.054483406   0.286601288   0.122324353
Br       0.750000000   1.021088576   0.301934925
Br       0.445544967   0.786607386   0.377692300
Br       0.750000000   0.647769999   0.542016263
Br       0.750000000   0.147765524   0.957972738
Br       0.250000000  -0.021088564   0.698065075

K_POINTS automatic
3 3 3 0 0 0
