&control
calculation='vc-relax',
prefix='cs3ag2cl11',
pseudo_dir='./',
outdir='./'
disk_io = 'none'
/
&system
ibrav=0,
nat=64,
ntyp=3,
ecutwfc=80,
ecutrho=400,
occupations = 'smearing' 
degauss = 0.005
/
&electrons
conv_thr=1.0d-8
/
&ions
/
&cell
/

ATOMIC_SPECIES
Cs 1.0 Cs.pbe-sp-hgh.UPF
Ag 1.0 Ag.pbe-dn-rrkjus_psl.0.1.UPF
Cl 1.0 Cl.pbe-n-rrkjus_psl.0.1.UPF

CELL_PARAMETERS (angstrom)
   7.417554482   0.000079887  -0.133611424
   0.000170352  16.246761839   0.000185255
  -1.530234508   0.000192746  18.501861324

ATOMIC_POSITIONS (crystal)
Cs       0.255647627   0.629334462   0.925946581
Cs       0.255697432   0.870642955   0.425926470
Cs       0.747652390   0.023033211   0.103976809
Cs       0.747702746   0.476952311   0.603900898
Cs       0.252297254   0.523047659   0.396099132
Cs       0.740487379   0.780642530   0.677795225
Cs       0.740510243   0.719382994   0.177812968
Cs       0.744302538   0.129357045   0.574073530
Cs       0.252347610   0.976966815   0.896023169
Cs       0.259489727   0.280617006   0.822187047
Cs       0.744352343   0.370665538   0.074053434
Cs       0.259512591   0.219357455   0.322204775
Ag       0.248601979   0.310844560   0.560539471
Ag       0.250804716   0.497886864   0.166425674
Ag       0.749212079   0.997922492   0.333648356
Ag       0.749195299   0.502113136   0.833574340
Ag       0.250787936   0.002077519   0.666351644
Ag       0.751398021   0.689155440   0.439460499
Ag       0.751358160   0.810828428   0.939375864
Ag       0.248641840   0.189171587   0.060624166
Cl       0.638746967   0.202012646   0.218180580
Cl       0.252023913   0.168058952   0.542747283
Cl       0.073910158   0.838981790   0.084328474
Cl       0.025108856   0.562496646   0.089494845
Cl       0.977366327   0.797244341   0.860814663
Cl       0.974911768   0.062550232   0.410550081
Cl       0.473941644   0.949012744   0.598211773
Cl       0.758356155   0.546506119   0.421797710
Cl       0.025088248   0.937449745   0.589449949
Cl       0.481989191   0.173509525   0.984981553
Cl       0.028671019   0.444161313   0.233422013
Cl       0.218628671   0.727671525   0.681674223
Cl       0.971400770   0.944173710   0.266693475
Cl       0.361255324   0.701969054   0.281798290
Cl       0.758368141   0.953501111   0.921840580
Cl       0.218614739   0.772331535   0.181681223
Cl       0.028599224   0.055826298   0.733306525
Cl       0.473328515   0.434135804   0.245051995
Cl       0.977285086   0.702779137   0.360842550
Cl       0.526674221   0.934151425   0.255040498
Cl       0.073945018   0.661045201   0.584296241
Cl       0.481948871   0.326536507   0.484893056
Cl       0.022714932   0.297220863   0.639157450
Cl       0.518010809   0.826490490   0.015018422
Cl       0.781385261   0.227668480   0.818318807
Cl       0.473912148   0.550964670   0.098261449
Cl       0.747927517   0.668028053   0.957091432
Cl       0.518051129   0.673463493   0.515106974
Cl       0.971328975   0.555838687   0.766577987
Cl       0.926054959   0.338954799   0.415703759
Cl       0.022633691   0.202755674   0.139185352
Cl       0.638744646   0.298030946   0.718201740
Cl       0.361253003   0.797987369   0.781819405
Cl       0.241631859   0.046498860   0.078159390
Cl       0.747976117   0.831941018   0.457252747
Cl       0.526058326   0.050987241   0.401788257
Cl       0.781371329   0.272328475   0.318325747
Cl       0.974891160   0.437503384   0.910505125
Cl       0.241643845   0.453493910   0.578202320
Cl       0.526087822   0.449035360   0.901738536
Cl       0.926089819   0.161018225   0.915671534
Cl       0.252072513   0.331971977   0.042908538
Cl       0.473325809   0.065848597   0.744959502
Cl       0.526671515   0.565864166   0.754948005


K_POINTS automatic
2 2 2 0 0 0
