 &CONTROL
 calculation="scf"
 tprnfor    = .true.
 prefix="euo_fd2",pseudo_dir="../pseudo",outdir="./"
 disk_io = 'none'
 /
 &SYSTEM
 ibrav  = 0
 nat    =          432
 ntyp   =            2
 ecutwfc=    70.0000000000000     
 ecutrho=    280.000000000000     
    lda_plus_u      = .true.
    lda_plus_u_kind = 0
    Hubbard_U (1)   = 8.3
    Hubbard_U (2)   = 4.6
    nspin           = 2
    starting_magnetization(1) = 1
    occupations     = 'smearing'
    smearing        = 'mp'
    degauss         = 0.01
    nbnd            = 3726
 /
 &ELECTRONS
 mixing_beta = 0.5, conv_thr = 1.0d-9
 /
 ATOMIC_SPECIES
   Eu       151.960      Eu.GGA-PBE-paw-v1.0.UPF
   O         15.999      O.pbe-kjpaw.UPF
 ATOMIC_POSITIONS {angstrom}
Eu      0.000000000     0.000000000     0.000000000
O       2.596750490     0.000000000     0.000000000
Eu     -2.586750490     2.586750490     0.000000000
O       0.000000000     2.586750490     0.000000000
Eu     -5.173500980     5.173500980     0.000000000
O      -2.586750490     5.173500980     0.000000000
Eu     -7.760251470     7.760251470     0.000000000
O      -5.173500980     7.760251470     0.000000000
Eu    -10.347001960    10.347001960     0.000000000
O      -7.760251470    10.347001960     0.000000000
Eu    -12.933752449    12.933752449     0.000000000
O     -10.347001960    12.933752449     0.000000000
Eu      0.000000000     2.586750490     2.586750490
O       2.586750490     2.586750490     2.586750490
Eu     -2.586750490     5.173500980     2.586750490
O       0.000000000     5.173500980     2.586750490
Eu     -5.173500980     7.760251470     2.586750490
O      -2.586750490     7.760251470     2.586750490
Eu     -7.760251470    10.347001960     2.586750490
O      -5.173500980    10.347001960     2.586750490
Eu    -10.347001960    12.933752449     2.586750490
O      -7.760251470    12.933752449     2.586750490
Eu    -12.933752449    15.520502939     2.586750490
O     -10.347001960    15.520502939     2.586750490
Eu      0.000000000     5.173500980     5.173500980
O       2.586750490     5.173500980     5.173500980
Eu     -2.586750490     7.760251470     5.173500980
O       0.000000000     7.760251470     5.173500980
Eu     -5.173500980    10.347001960     5.173500980
O      -2.586750490    10.347001960     5.173500980
Eu     -7.760251470    12.933752449     5.173500980
O      -5.173500980    12.933752449     5.173500980
Eu    -10.347001960    15.520502939     5.173500980
O      -7.760251470    15.520502939     5.173500980
Eu    -12.933752449    18.107253429     5.173500980
O     -10.347001960    18.107253429     5.173500980
Eu      0.000000000     7.760251470     7.760251470
O       2.586750490     7.760251470     7.760251470
Eu     -2.586750490    10.347001960     7.760251470
O       0.000000000    10.347001960     7.760251470
Eu     -5.173500980    12.933752449     7.760251470
O      -2.586750490    12.933752449     7.760251470
Eu     -7.760251470    15.520502939     7.760251470
O      -5.173500980    15.520502939     7.760251470
Eu    -10.347001960    18.107253429     7.760251470
O      -7.760251470    18.107253429     7.760251470
Eu    -12.933752449    20.694003919     7.760251470
O     -10.347001960    20.694003919     7.760251470
Eu      0.000000000    10.347001960    10.347001960
O       2.586750490    10.347001960    10.347001960
Eu     -2.586750490    12.933752449    10.347001960
O       0.000000000    12.933752449    10.347001960
Eu     -5.173500980    15.520502939    10.347001960
O      -2.586750490    15.520502939    10.347001960
Eu     -7.760251470    18.107253429    10.347001960
O      -5.173500980    18.107253429    10.347001960
Eu    -10.347001960    20.694003919    10.347001960
O      -7.760251470    20.694003919    10.347001960
Eu    -12.933752449    23.280754409    10.347001960
O     -10.347001960    23.280754409    10.347001960
Eu      0.000000000    12.933752449    12.933752449
O       2.586750490    12.933752449    12.933752449
Eu     -2.586750490    15.520502939    12.933752449
O       0.000000000    15.520502939    12.933752449
Eu     -5.173500980    18.107253429    12.933752449
O      -2.586750490    18.107253429    12.933752449
Eu     -7.760251470    20.694003919    12.933752449
O      -5.173500980    20.694003919    12.933752449
Eu    -10.347001960    23.280754409    12.933752449
O      -7.760251470    23.280754409    12.933752449
Eu    -12.933752449    25.867504899    12.933752449
O     -10.347001960    25.867504899    12.933752449
Eu     -2.586750490     0.000000000     2.586750490
O       0.000000000     0.000000000     2.586750490
Eu     -5.173500980     2.586750490     2.586750490
O      -2.586750490     2.586750490     2.586750490
Eu     -7.760251470     5.173500980     2.586750490
O      -5.173500980     5.173500980     2.586750490
Eu    -10.347001960     7.760251470     2.586750490
O      -7.760251470     7.760251470     2.586750490
Eu    -12.933752449    10.347001960     2.586750490
O     -10.347001960    10.347001960     2.586750490
Eu    -15.520502939    12.933752449     2.586750490
O     -12.933752449    12.933752449     2.586750490
Eu     -2.586750490     2.586750490     5.173500980
O       0.000000000     2.586750490     5.173500980
Eu     -5.173500980     5.173500980     5.173500980
O      -2.586750490     5.173500980     5.173500980
Eu     -7.760251470     7.760251470     5.173500980
O      -5.173500980     7.760251470     5.173500980
Eu    -10.347001960    10.347001960     5.173500980
O      -7.760251470    10.347001960     5.173500980
Eu    -12.933752449    12.933752449     5.173500980
O     -10.347001960    12.933752449     5.173500980
Eu    -15.520502939    15.520502939     5.173500980
O     -12.933752449    15.520502939     5.173500980
Eu     -2.586750490     5.173500980     7.760251470
O       0.000000000     5.173500980     7.760251470
Eu     -5.173500980     7.760251470     7.760251470
O      -2.586750490     7.760251470     7.760251470
Eu     -7.760251470    10.347001960     7.760251470
O      -5.173500980    10.347001960     7.760251470
Eu    -10.347001960    12.933752449     7.760251470
O      -7.760251470    12.933752449     7.760251470
Eu    -12.933752449    15.520502939     7.760251470
O     -10.347001960    15.520502939     7.760251470
Eu    -15.520502939    18.107253429     7.760251470
O     -12.933752449    18.107253429     7.760251470
Eu     -2.586750490     7.760251470    10.347001960
O       0.000000000     7.760251470    10.347001960
Eu     -5.173500980    10.347001960    10.347001960
O      -2.586750490    10.347001960    10.347001960
Eu     -7.760251470    12.933752449    10.347001960
O      -5.173500980    12.933752449    10.347001960
Eu    -10.347001960    15.520502939    10.347001960
O      -7.760251470    15.520502939    10.347001960
Eu    -12.933752449    18.107253429    10.347001960
O     -10.347001960    18.107253429    10.347001960
Eu    -15.520502939    20.694003919    10.347001960
O     -12.933752449    20.694003919    10.347001960
Eu     -2.586750490    10.347001960    12.933752449
O       0.000000000    10.347001960    12.933752449
Eu     -5.173500980    12.933752449    12.933752449
O      -2.586750490    12.933752449    12.933752449
Eu     -7.760251470    15.520502939    12.933752449
O      -5.173500980    15.520502939    12.933752449
Eu    -10.347001960    18.107253429    12.933752449
O      -7.760251470    18.107253429    12.933752449
Eu    -12.933752449    20.694003919    12.933752449
O     -10.347001960    20.694003919    12.933752449
Eu    -15.520502939    23.280754409    12.933752449
O     -12.933752449    23.280754409    12.933752449
Eu     -2.586750490    12.933752449    15.520502939
O       0.000000000    12.933752449    15.520502939
Eu     -5.173500980    15.520502939    15.520502939
O      -2.586750490    15.520502939    15.520502939
Eu     -7.760251470    18.107253429    15.520502939
O      -5.173500980    18.107253429    15.520502939
Eu    -10.347001960    20.694003919    15.520502939
O      -7.760251470    20.694003919    15.520502939
Eu    -12.933752449    23.280754409    15.520502939
O     -10.347001960    23.280754409    15.520502939
Eu    -15.520502939    25.867504899    15.520502939
O     -12.933752449    25.867504899    15.520502939
Eu     -5.173500980     0.000000000     5.173500980
O      -2.586750490     0.000000000     5.173500980
Eu     -7.760251470     2.586750490     5.173500980
O      -5.173500980     2.586750490     5.173500980
Eu    -10.347001960     5.173500980     5.173500980
O      -7.760251470     5.173500980     5.173500980
Eu    -12.933752449     7.760251470     5.173500980
O     -10.347001960     7.760251470     5.173500980
Eu    -15.520502939    10.347001960     5.173500980
O     -12.933752449    10.347001960     5.173500980
Eu    -18.107253429    12.933752449     5.173500980
O     -15.520502939    12.933752449     5.173500980
Eu     -5.173500980     2.586750490     7.760251470
O      -2.586750490     2.586750490     7.760251470
Eu     -7.760251470     5.173500980     7.760251470
O      -5.173500980     5.173500980     7.760251470
Eu    -10.347001960     7.760251470     7.760251470
O      -7.760251470     7.760251470     7.760251470
Eu    -12.933752449    10.347001960     7.760251470
O     -10.347001960    10.347001960     7.760251470
Eu    -15.520502939    12.933752449     7.760251470
O     -12.933752449    12.933752449     7.760251470
Eu    -18.107253429    15.520502939     7.760251470
O     -15.520502939    15.520502939     7.760251470
Eu     -5.173500980     5.173500980    10.347001960
O      -2.586750490     5.173500980    10.347001960
Eu     -7.760251470     7.760251470    10.347001960
O      -5.173500980     7.760251470    10.347001960
Eu    -10.347001960    10.347001960    10.347001960
O      -7.760251470    10.347001960    10.347001960
Eu    -12.933752449    12.933752449    10.347001960
O     -10.347001960    12.933752449    10.347001960
Eu    -15.520502939    15.520502939    10.347001960
O     -12.933752449    15.520502939    10.347001960
Eu    -18.107253429    18.107253429    10.347001960
O     -15.520502939    18.107253429    10.347001960
Eu     -5.173500980     7.760251470    12.933752449
O      -2.586750490     7.760251470    12.933752449
Eu     -7.760251470    10.347001960    12.933752449
O      -5.173500980    10.347001960    12.933752449
Eu    -10.347001960    12.933752449    12.933752449
O      -7.760251470    12.933752449    12.933752449
Eu    -12.933752449    15.520502939    12.933752449
O     -10.347001960    15.520502939    12.933752449
Eu    -15.520502939    18.107253429    12.933752449
O     -12.933752449    18.107253429    12.933752449
Eu    -18.107253429    20.694003919    12.933752449
O     -15.520502939    20.694003919    12.933752449
Eu     -5.173500980    10.347001960    15.520502939
O      -2.586750490    10.347001960    15.520502939
Eu     -7.760251470    12.933752449    15.520502939
O      -5.173500980    12.933752449    15.520502939
Eu    -10.347001960    15.520502939    15.520502939
O      -7.760251470    15.520502939    15.520502939
Eu    -12.933752449    18.107253429    15.520502939
O     -10.347001960    18.107253429    15.520502939
Eu    -15.520502939    20.694003919    15.520502939
O     -12.933752449    20.694003919    15.520502939
Eu    -18.107253429    23.280754409    15.520502939
O     -15.520502939    23.280754409    15.520502939
Eu     -5.173500980    12.933752449    18.107253429
O      -2.586750490    12.933752449    18.107253429
Eu     -7.760251470    15.520502939    18.107253429
O      -5.173500980    15.520502939    18.107253429
Eu    -10.347001960    18.107253429    18.107253429
O      -7.760251470    18.107253429    18.107253429
Eu    -12.933752449    20.694003919    18.107253429
O     -10.347001960    20.694003919    18.107253429
Eu    -15.520502939    23.280754409    18.107253429
O     -12.933752449    23.280754409    18.107253429
Eu    -18.107253429    25.867504899    18.107253429
O     -15.520502939    25.867504899    18.107253429
Eu     -7.760251470     0.000000000     7.760251470
O      -5.173500980     0.000000000     7.760251470
Eu    -10.347001960     2.586750490     7.760251470
O      -7.760251470     2.586750490     7.760251470
Eu    -12.933752449     5.173500980     7.760251470
O     -10.347001960     5.173500980     7.760251470
Eu    -15.520502939     7.760251470     7.760251470
O     -12.933752449     7.760251470     7.760251470
Eu    -18.107253429    10.347001960     7.760251470
O     -15.520502939    10.347001960     7.760251470
Eu    -20.694003919    12.933752449     7.760251470
O     -18.107253429    12.933752449     7.760251470
Eu     -7.760251470     2.586750490    10.347001960
O      -5.173500980     2.586750490    10.347001960
Eu    -10.347001960     5.173500980    10.347001960
O      -7.760251470     5.173500980    10.347001960
Eu    -12.933752449     7.760251470    10.347001960
O     -10.347001960     7.760251470    10.347001960
Eu    -15.520502939    10.347001960    10.347001960
O     -12.933752449    10.347001960    10.347001960
Eu    -18.107253429    12.933752449    10.347001960
O     -15.520502939    12.933752449    10.347001960
Eu    -20.694003919    15.520502939    10.347001960
O     -18.107253429    15.520502939    10.347001960
Eu     -7.760251470     5.173500980    12.933752449
O      -5.173500980     5.173500980    12.933752449
Eu    -10.347001960     7.760251470    12.933752449
O      -7.760251470     7.760251470    12.933752449
Eu    -12.933752449    10.347001960    12.933752449
O     -10.347001960    10.347001960    12.933752449
Eu    -15.520502939    12.933752449    12.933752449
O     -12.933752449    12.933752449    12.933752449
Eu    -18.107253429    15.520502939    12.933752449
O     -15.520502939    15.520502939    12.933752449
Eu    -20.694003919    18.107253429    12.933752449
O     -18.107253429    18.107253429    12.933752449
Eu     -7.760251470     7.760251470    15.520502939
O      -5.173500980     7.760251470    15.520502939
Eu    -10.347001960    10.347001960    15.520502939
O      -7.760251470    10.347001960    15.520502939
Eu    -12.933752449    12.933752449    15.520502939
O     -10.347001960    12.933752449    15.520502939
Eu    -15.520502939    15.520502939    15.520502939
O     -12.933752449    15.520502939    15.520502939
Eu    -18.107253429    18.107253429    15.520502939
O     -15.520502939    18.107253429    15.520502939
Eu    -20.694003919    20.694003919    15.520502939
O     -18.107253429    20.694003919    15.520502939
Eu     -7.760251470    10.347001960    18.107253429
O      -5.173500980    10.347001960    18.107253429
Eu    -10.347001960    12.933752449    18.107253429
O      -7.760251470    12.933752449    18.107253429
Eu    -12.933752449    15.520502939    18.107253429
O     -10.347001960    15.520502939    18.107253429
Eu    -15.520502939    18.107253429    18.107253429
O     -12.933752449    18.107253429    18.107253429
Eu    -18.107253429    20.694003919    18.107253429
O     -15.520502939    20.694003919    18.107253429
Eu    -20.694003919    23.280754409    18.107253429
O     -18.107253429    23.280754409    18.107253429
Eu     -7.760251470    12.933752449    20.694003919
O      -5.173500980    12.933752449    20.694003919
Eu    -10.347001960    15.520502939    20.694003919
O      -7.760251470    15.520502939    20.694003919
Eu    -12.933752449    18.107253429    20.694003919
O     -10.347001960    18.107253429    20.694003919
Eu    -15.520502939    20.694003919    20.694003919
O     -12.933752449    20.694003919    20.694003919
Eu    -18.107253429    23.280754409    20.694003919
O     -15.520502939    23.280754409    20.694003919
Eu    -20.694003919    25.867504899    20.694003919
O     -18.107253429    25.867504899    20.694003919
Eu    -10.347001960     0.000000000    10.347001960
O      -7.760251470     0.000000000    10.347001960
Eu    -12.933752449     2.586750490    10.347001960
O     -10.347001960     2.586750490    10.347001960
Eu    -15.520502939     5.173500980    10.347001960
O     -12.933752449     5.173500980    10.347001960
Eu    -18.107253429     7.760251470    10.347001960
O     -15.520502939     7.760251470    10.347001960
Eu    -20.694003919    10.347001960    10.347001960
O     -18.107253429    10.347001960    10.347001960
Eu    -23.280754409    12.933752449    10.347001960
O     -20.694003919    12.933752449    10.347001960
Eu    -10.347001960     2.586750490    12.933752449
O      -7.760251470     2.586750490    12.933752449
Eu    -12.933752449     5.173500980    12.933752449
O     -10.347001960     5.173500980    12.933752449
Eu    -15.520502939     7.760251470    12.933752449
O     -12.933752449     7.760251470    12.933752449
Eu    -18.107253429    10.347001960    12.933752449
O     -15.520502939    10.347001960    12.933752449
Eu    -20.694003919    12.933752449    12.933752449
O     -18.107253429    12.933752449    12.933752449
Eu    -23.280754409    15.520502939    12.933752449
O     -20.694003919    15.520502939    12.933752449
Eu    -10.347001960     5.173500980    15.520502939
O      -7.760251470     5.173500980    15.520502939
Eu    -12.933752449     7.760251470    15.520502939
O     -10.347001960     7.760251470    15.520502939
Eu    -15.520502939    10.347001960    15.520502939
O     -12.933752449    10.347001960    15.520502939
Eu    -18.107253429    12.933752449    15.520502939
O     -15.520502939    12.933752449    15.520502939
Eu    -20.694003919    15.520502939    15.520502939
O     -18.107253429    15.520502939    15.520502939
Eu    -23.280754409    18.107253429    15.520502939
O     -20.694003919    18.107253429    15.520502939
Eu    -10.347001960     7.760251470    18.107253429
O      -7.760251470     7.760251470    18.107253429
Eu    -12.933752449    10.347001960    18.107253429
O     -10.347001960    10.347001960    18.107253429
Eu    -15.520502939    12.933752449    18.107253429
O     -12.933752449    12.933752449    18.107253429
Eu    -18.107253429    15.520502939    18.107253429
O     -15.520502939    15.520502939    18.107253429
Eu    -20.694003919    18.107253429    18.107253429
O     -18.107253429    18.107253429    18.107253429
Eu    -23.280754409    20.694003919    18.107253429
O     -20.694003919    20.694003919    18.107253429
Eu    -10.347001960    10.347001960    20.694003919
O      -7.760251470    10.347001960    20.694003919
Eu    -12.933752449    12.933752449    20.694003919
O     -10.347001960    12.933752449    20.694003919
Eu    -15.520502939    15.520502939    20.694003919
O     -12.933752449    15.520502939    20.694003919
Eu    -18.107253429    18.107253429    20.694003919
O     -15.520502939    18.107253429    20.694003919
Eu    -20.694003919    20.694003919    20.694003919
O     -18.107253429    20.694003919    20.694003919
Eu    -23.280754409    23.280754409    20.694003919
O     -20.694003919    23.280754409    20.694003919
Eu    -10.347001960    12.933752449    23.280754409
O      -7.760251470    12.933752449    23.280754409
Eu    -12.933752449    15.520502939    23.280754409
O     -10.347001960    15.520502939    23.280754409
Eu    -15.520502939    18.107253429    23.280754409
O     -12.933752449    18.107253429    23.280754409
Eu    -18.107253429    20.694003919    23.280754409
O     -15.520502939    20.694003919    23.280754409
Eu    -20.694003919    23.280754409    23.280754409
O     -18.107253429    23.280754409    23.280754409
Eu    -23.280754409    25.867504899    23.280754409
O     -20.694003919    25.867504899    23.280754409
Eu    -12.933752449     0.000000000    12.933752449
O     -10.347001960     0.000000000    12.933752449
Eu    -15.520502939     2.586750490    12.933752449
O     -12.933752449     2.586750490    12.933752449
Eu    -18.107253429     5.173500980    12.933752449
O     -15.520502939     5.173500980    12.933752449
Eu    -20.694003919     7.760251470    12.933752449
O     -18.107253429     7.760251470    12.933752449
Eu    -23.280754409    10.347001960    12.933752449
O     -20.694003919    10.347001960    12.933752449
Eu    -25.867504899    12.933752449    12.933752449
O     -23.280754409    12.933752449    12.933752449
Eu    -12.933752449     2.586750490    15.520502939
O     -10.347001960     2.586750490    15.520502939
Eu    -15.520502939     5.173500980    15.520502939
O     -12.933752449     5.173500980    15.520502939
Eu    -18.107253429     7.760251470    15.520502939
O     -15.520502939     7.760251470    15.520502939
Eu    -20.694003919    10.347001960    15.520502939
O     -18.107253429    10.347001960    15.520502939
Eu    -23.280754409    12.933752449    15.520502939
O     -20.694003919    12.933752449    15.520502939
Eu    -25.867504899    15.520502939    15.520502939
O     -23.280754409    15.520502939    15.520502939
Eu    -12.933752449     5.173500980    18.107253429
O     -10.347001960     5.173500980    18.107253429
Eu    -15.520502939     7.760251470    18.107253429
O     -12.933752449     7.760251470    18.107253429
Eu    -18.107253429    10.347001960    18.107253429
O     -15.520502939    10.347001960    18.107253429
Eu    -20.694003919    12.933752449    18.107253429
O     -18.107253429    12.933752449    18.107253429
Eu    -23.280754409    15.520502939    18.107253429
O     -20.694003919    15.520502939    18.107253429
Eu    -25.867504899    18.107253429    18.107253429
O     -23.280754409    18.107253429    18.107253429
Eu    -12.933752449     7.760251470    20.694003919
O     -10.347001960     7.760251470    20.694003919
Eu    -15.520502939    10.347001960    20.694003919
O     -12.933752449    10.347001960    20.694003919
Eu    -18.107253429    12.933752449    20.694003919
O     -15.520502939    12.933752449    20.694003919
Eu    -20.694003919    15.520502939    20.694003919
O     -18.107253429    15.520502939    20.694003919
Eu    -23.280754409    18.107253429    20.694003919
O     -20.694003919    18.107253429    20.694003919
Eu    -25.867504899    20.694003919    20.694003919
O     -23.280754409    20.694003919    20.694003919
Eu    -12.933752449    10.347001960    23.280754409
O     -10.347001960    10.347001960    23.280754409
Eu    -15.520502939    12.933752449    23.280754409
O     -12.933752449    12.933752449    23.280754409
Eu    -18.107253429    15.520502939    23.280754409
O     -15.520502939    15.520502939    23.280754409
Eu    -20.694003919    18.107253429    23.280754409
O     -18.107253429    18.107253429    23.280754409
Eu    -23.280754409    20.694003919    23.280754409
O     -20.694003919    20.694003919    23.280754409
Eu    -25.867504899    23.280754409    23.280754409
O     -23.280754409    23.280754409    23.280754409
Eu    -12.933752449    12.933752449    25.867504899
O     -10.347001960    12.933752449    25.867504899
Eu    -15.520502939    15.520502939    25.867504899
O     -12.933752449    15.520502939    25.867504899
Eu    -18.107253429    18.107253429    25.867504899
O     -15.520502939    18.107253429    25.867504899
Eu    -20.694003919    20.694003919    25.867504899
O     -18.107253429    20.694003919    25.867504899
Eu    -23.280754409    23.280754409    25.867504899
O     -20.694003919    23.280754409    25.867504899
Eu    -25.867504899    25.867504899    25.867504899
O     -23.280754409    25.867504899    25.867504899
 K_POINTS gamma
 CELL_PARAMETERS {angstrom}
  -15.5205029393404       0.000000000000000E+000   15.5205029393404     
  0.000000000000000E+000   15.5205029393404        15.5205029393404     
  -15.5205029393404        15.5205029393404       0.000000000000000E+000
