ATOMIC_SPECIES
Cs 1.0 Cs.pz-sp-hgh.UPF
Bi 1.0 bi-semi.UPF
Ag 0.875 ag-ns.UPF
Cu 0.125 Cu.pz-d-hgh.UPF
Cl 1.0 Cl.pz-bhs.UPF

CELL_PARAMETERS (angstrom)
5.2297 0.0000 5.2297
5.2297 5.2297 0.0000
0.0000 5.2297 5.2297

ATOMIC_POSITIONS (crystal)
Bi       0.000000000   0.000000000   0.000000000
Ag       0.500000000   0.500000000   0.500000000
Cu       0.500000000   0.500000000   0.500000000
Cl       0.732268900   0.258309444   0.755778254
Cl       0.267731100   0.741690556   0.244221746
Cl       0.741128115   0.238241458   0.273344516
Cl       0.258871885   0.761758542   0.726655484
Cl       0.759067149   0.729318653   0.249660853
Cl       0.240932851   0.270681347   0.750339147
Cs       0.249819720   0.249642955   0.249589745
Cs       0.750180220   0.750356985   0.750410195

