ATOMIC_SPECIES
Cs 1.0 Cs.pz-sp-hgh.UPF
Bi 1.0 bi-semi.UPF
Ag 0.75 ag-ns.UPF
Cu 0.25 Cu.pz-d-hgh.UPF
Cl 1.0 Cl.pz-bhs.UPF

CELL_PARAMETERS (angstrom)
5.2116 0.0000 5.2116
5.2116 5.2116 0.0000
0.0000 5.2116 5.2116

ATOMIC_POSITIONS (crystal)
Bi       0.000000000   0.000000000   0.000000000
Ag       0.500000000   0.500000000   0.500000000
Cu       0.500000000   0.500000000   0.500000000
Cl       0.730968412   0.260261287   0.752375541
Cl       0.269031588   0.739738713   0.247624459
Cl       0.739594030   0.241834040   0.273832450
Cl       0.260405970   0.758165960   0.726167550
Cl       0.755741007   0.728737192   0.251981287
Cl       0.244258993   0.271262808   0.748018713
Cs       0.249627551   0.249375676   0.249466628
Cs       0.750372389   0.750624264   0.750533312
