&control
calculation='vc-relax',
prefix='sbagbr6',
pseudo_dir='./',
outdir='./'
disk_io = 'none'
/
&system
ibrav=0,
nat=32,
ntyp=3,
ecutwfc=80,
ecutrho=400,
occupations = 'smearing' 
degauss = 0.005
/
&electrons
conv_thr=1.0d-8
/
&ions
/
&cell
/

ATOMIC_SPECIES
Sb 1.0 Sb.pbe-dn-rrkjus_psl.0.3.1.UPF
Ag 1.0 Ag.pbe-dn-rrkjus_psl.0.1.UPF
Br 1.0 Br.pbe-n-rrkjus_psl.0.2.UPF

CELL_PARAMETERS (angstrom)
   8.418085373   0.021986993  -0.041550896
  -4.093331878   9.755069021   0.177253172
  -1.794251729  -4.304258168  14.654522445

ATOMIC_POSITIONS (crystal)
Sb       0.667331592   0.919902383   0.620360152
Sb       0.051763763   0.676382678   0.124503485
Sb       0.332668408   0.080097595   0.379639818
Sb       0.948236252   0.323617322   0.875496529
Ag       0.292238757   0.624054323   0.766916326
Ag       0.500000000   0.500000000   0.500000000
Ag       0.707761213   0.375945706   0.233083689
Ag       0.000000000   0.000000000   0.000000000
Br       0.777503865   0.093415167   0.962645189
Br       0.717693234   0.160490491   0.267378809
Br       0.282306766   0.839509494   0.732621191
Br       0.769953602   0.796787730   0.035540392
Br       0.657201917   0.182816325   0.739264592
Br       0.290134909   0.398699388   0.794744850
Br       0.709865091   0.601300612   0.205255150
Br       0.336427546   0.650591066   0.483796029
Br       0.230046384   0.203212285   0.964459606
Br       0.783329683   0.717753204   0.532519867
Br       0.222496120   0.906584826   0.037354800
Br       0.761159566   0.059277810   0.498644585
Br       0.597379504   0.697559410   0.743318449
Br       0.980514899   0.021208634   0.723589588
Br       0.216670347   0.282246796   0.467480133
Br       0.342798083   0.817183645   0.260735408
Br       0.988730801   0.557068715   0.797615500
Br       0.754612200   0.430194574   0.965782647
Br       0.245387800   0.569805426   0.034217358
Br       0.011269179   0.442931285   0.202384514
Br       0.402620525   0.302440590   0.256681580
Br       0.238840405   0.940722201   0.501355386
Br       0.663572484   0.349408904   0.516203971
Br       0.019485093   0.978791381   0.276410383

K_POINTS automatic
3 3 3 0 0 0
