&control
calculation='scf',
prefix='bii3',
pseudo_dir='./',
outdir='./'
disk_io = 'none'
/
&system
ibrav=0,
nat=24,
ntyp=2,
ecutwfc=20,
ecutrho=100,
occupations = 'smearing' 
degauss = 0.005
/
&electrons
conv_thr=1.0d-8
/
&ions
/
&cell
/

ATOMIC_SPECIES
Bi 1.0 Bi.pz-dn-rrkjus_psl.0.2.2.UPF
I 1.0 I.pz-n-rrkjus_psl.0.2.UPF

CELL_PARAMETERS {angstrom}
        7.8349614143         0.0000000000         0.0000000000
       -3.9174807072         6.7852756225         0.0000000000
        0.0000000000         0.0000000000        23.0858364105

ATOMIC_POSITIONS {crystal}
Bi	     0.333332986         0.666666985         0.999907970
Bi	     0.666666985         0.333332986         0.000092000
Bi	     0.000000000         0.000000000         0.333240986
Bi	     0.333332986         0.666666985         0.333425999
Bi	     0.666666985         0.333332986         0.666574001
Bi	     0.000000000         0.000000000         0.666759014
I	     0.356590003         0.002649000         0.078975998
I	     0.997350991         0.353940994         0.078975998
I	     0.353940994         0.356590003         0.921024024
I	     0.002649000         0.646058977         0.921024024
I	     0.643410027         0.997350991         0.921024024
I	     0.646058977         0.643410027         0.078975998
I	     0.023256000         0.335981995         0.412308991
I	     0.664017975         0.687273979         0.412308991
I	     0.020607000         0.689922988         0.254357994
I	     0.669314981         0.979393005         0.254357994
I	     0.310077012         0.330684990         0.254357994
I	     0.312725991         0.976743996         0.412308991
I	     0.689922988         0.669314981         0.745642006
I	     0.330684990         0.020607000         0.745642006
I	     0.687273979         0.023256000         0.587691009
I	     0.335981995         0.312725991         0.587691009
I	     0.976743996         0.664017975         0.587691009
I	     0.979393005         0.310077012         0.745642006

K_POINTS automatic
   14   14   14    0    0    0
