&control
calculation='scf',
prefix='cs3cu2cl5',
pseudo_dir='./',
outdir='./'
disk_io = 'none'
/
&system
ibrav=0,
nat=40,
ntyp=3,
ecutwfc=20,
ecutrho=100,
occupations = 'smearing' 
degauss = 0.005
/
&electrons
conv_thr=1.0d-8
/
&ions
/
&cell
/

ATOMIC_SPECIES
Cs 1.0 Cs.pz-sp-hgh.UPF
Cu 1.0 Cu.pz-dn-rrkjus_psl.0.2.UPF
Cl 1.0 Cl.pz-n-rrkjus_psl.0.1.UPF

CELL_PARAMETERS {angstrom}
        9.4782629013         0.0000000000         0.0000000000
        0.0000000000        10.6362876892         0.0000000000
        0.0000000000         0.0000000000        13.3029460907

ATOMIC_POSITIONS {crystal}
Cs	     0.538663030         0.513181984         0.821039975
Cs	     0.461337000         0.486817986         0.178959996
Cs	     0.961336970         0.013182000         0.321040004
Cs	     0.038663000         0.986818016         0.678960025
Cs	     0.392652005         0.750000000         0.454014003
Cs	     0.038663000         0.513181984         0.678960025
Cs	     0.607348025         0.250000000         0.545985997
Cs	     0.461337000         0.013182000         0.178959996
Cs	     0.892651975         0.750000000         0.045986000
Cs	     0.961336970         0.486817986         0.321040004
Cs	     0.107348002         0.250000000         0.954014003
Cs	     0.538663030         0.986818016         0.821039975
Cu	     0.264858007         0.250000000         0.362760991
Cu	     0.292275012         0.750000000         0.048966002
Cu	     0.235141993         0.750000000         0.862761021
Cu	     0.792275012         0.750000000         0.451034009
Cu	     0.735141993         0.750000000         0.637238979
Cu	     0.707724988         0.250000000         0.951034009
Cu	     0.764858007         0.250000000         0.137238994
Cu	     0.207725003         0.250000000         0.548965991
Cl	     0.679246008         0.250000000         0.293139011
Cl	     0.814713001         0.066840999         0.059089001
Cl	     0.803057015         0.250000000         0.797299027
Cl	     0.820753992         0.750000000         0.793138981
Cl	     0.023464000         0.750000000         0.489176005
Cl	     0.696942985         0.750000000         0.297298998
Cl	     0.685286999         0.566841006         0.559089005
Cl	     0.179245993         0.250000000         0.206861004
Cl	     0.320753992         0.750000000         0.706861019
Cl	     0.196943000         0.750000000         0.202701002
Cl	     0.314713001         0.433158994         0.440910995
Cl	     0.476536006         0.250000000         0.989175975
Cl	     0.185286999         0.933158994         0.940910995
Cl	     0.814713001         0.433158994         0.059089001
Cl	     0.314713001         0.066840999         0.440910995
Cl	     0.523464024         0.750000000         0.010824000
Cl	     0.976535976         0.250000000         0.510824025
Cl	     0.185286999         0.566841006         0.940910995
Cl	     0.685286999         0.933158994         0.559089005
Cl	     0.303056985         0.250000000         0.702700973

K_POINTS automatic
   11   11   11    0    0    0
