&control
calculation='vc-relax',
prefix='bibr5',
pseudo_dir='./',
outdir='./'
disk_io = 'none'
/
&system
ibrav=0,
nat=12,
ntyp=2,
ecutwfc=80,
ecutrho=400,
occupations = 'smearing' 
degauss = 0.005
/
&electrons
conv_thr=1.0d-8
/
&ions
/
&cell
/

ATOMIC_SPECIES
Bi 1.0 Bi.pbe-dn-rrkjus_psl.0.2.2.UPF
Br 1.0 Br.pbe-n-rrkjus_psl.0.2.UPF       

CELL_PARAMETERS (angstrom)
   8.306373874  -0.000000000   0.000000000
  -4.153186937   7.193530788  -0.000000000
  -0.000000000   0.000000000   8.342400103

ATOMIC_POSITIONS (crystal)
Bi       0.666666985   0.333332986   0.250000000
Bi       0.333332986   0.666666985   0.750000000
Br       0.294703841   0.147351921   0.250000000
Br       0.147351921   0.852648094   0.750000000
Br       0.333332986   0.666666985   0.081297574
Br       0.666666985   0.333332986   0.581297593
Br       0.666666985   0.333332986   0.918702407
Br       0.333332986   0.666666985   0.418702437
Br       0.705296189   0.852648094   0.750000000
Br       0.852648094   0.147351921   0.250000000
Br       0.852648094   0.705296189   0.250000000
Br       0.147351921   0.294703841   0.750000000

K_POINTS automatic
7 7 7 0 0 0
