num_bands    =  126   ! total KS states in nscf file
num_wann     =  96    ! number of wannier  state  ( calculate from projections )
num_iter     = 1000
spinors = .true.
exclude_bands : 1-248, 375-1000

dis_froz_min=  -1.0  ! frozen bands are not affected by the disentanglement
dis_froz_max= 3.73   ! top of valence band (for example)
dis_num_iter= 500
dis_win_min = -1.0    ! not rescaled - look into nscf output (bands) / disentanglement window
dis_win_max = 9.0    ! not rescaled - look into nscf output (bands) / disentanglement window

! restart=plot
! bands_plot = .true.
! bands_num_points=50  ! number of points between two high sym points

geninterp=.true.    ! if you want to calc the eigenval on any k-point (useful for effective masses) - needs file for kpoints (with name $prefix_geninterp.kpt)

! adpt_smr = .false.
! smr_fixed_en_width = 0.001
! dos = .true.
! kmesh =  100  100  100
! dos_task = dos_plot
! dos_energy_min = -1
! dos_energy_max = 9.0



begin projections
I:p
Pb:p
end projections

begin unit_cell_cart
angstrom
8.83636  0.00000  0.00000
0.00000 12.58070  0.00000
0.00000  0.00000  8.55526
end unit_cell_cart

begin atoms_frac
Pb       0.499990000   0.000000000   0.000000000
Pb       0.000000000   0.000000000   0.499990000
Pb       0.499990000   0.499990000   0.000000000
Pb       0.000000000   0.499990000   0.499990000
I        0.485710000   0.249990000   0.947070000
I        0.514271000   0.749985000   0.052909000
I        0.014280000   0.749985000   0.447082000
I        0.985700000   0.249990000   0.552900000
I        0.190197000   0.017190000   0.186146000
I        0.809790000   0.982790000   0.813840000
I        0.309790000   0.982790000   0.686140000
I        0.690188000   0.017190000   0.313844000
I        0.809790000   0.517180000   0.813840000
I        0.190200000   0.482800000   0.186150000
I        0.690190000   0.482800000   0.313840000
I        0.309790000   0.517180000   0.686140000
C        0.912980000   0.249990000   1.060980000
C        1.086980000   0.749980000   0.938980000
C        0.586990000   0.749980000   0.560990000
C        0.412990000   0.249990000   0.438990000
N        0.931980000   0.749980000   1.028980000
N        1.067980000   0.249990000   0.970980000
N        0.567990000   0.249990000   0.528990000
N        0.431990000   0.749980000   0.470990000
H        0.853124802   0.176654066   1.029156859
H        0.850781223   0.321128365   1.023311815
H        0.938901307   0.252523876   1.186484029
H        1.149177153   0.678840985   0.976653342
H        1.146837458   0.823314672   0.970803003
H        1.061060515   0.747438843   0.813476153
H        0.560961859   0.741994694   0.685984167
H        0.642720272   0.825977867   0.535010462
H        0.652790895   0.682098377   0.517697146
H        0.357261449   0.173992532   0.464979756
H        0.439018237   0.257967761   0.313995737
H        0.347188441   0.317873117   0.482279001
H        0.630340623   0.183238616   0.495133843
H        0.550686203   0.248937194   0.650056835
H        0.628339293   0.318208630   0.497559959
H        1.050517366   0.249134259   0.850001043
H        1.129893627   0.182931027   1.004627115
H        1.128910632   0.317733079   1.003347802
H        0.369640990   0.816730483   0.504848701
H        0.371634588   0.681764482   0.502424890
H        0.449296745   0.751025892   0.349923380
H        0.949439177   0.750846280   1.149960071
H        0.871056160   0.682232553   0.996621190
H        0.870063536   0.817035986   0.995324638
end atoms_frac

Begin Kpoint_Path
G 0.0 0.0 0.0 X 0.5 0.0 0.0
X 0.5 0.0 0.0 S 0.5 0.5 0.0
S 0.5 0.5 0.0 Y 0.0 0.5 0.0
Y 0.0 0.5 0.0 G 0.0 0.0 0.0
G 0.0 0.0 0.0 Z 0.0 0.0 0.5
Z 0.0 0.0 0.5 U 0.5 0.0 0.5
U 0.5 0.0 0.5 R 0.5 0.5 0.5
R 0.5 0.5 0.5 T 0.0 0.5 0.5
T 0.0 0.5 0.5 Z 0.0 0.0 0.5
End Kpoint_Path

mp_grid : 4 4 4

begin kpoints
   0   0   0
   0.00000   0.00000   0.25000
   0.00000   0.00000   0.50000
   0.00000   0.00000   0.75000
   0.00000   0.25000   0.00000
   0.00000   0.25000   0.25000
   0.00000   0.25000   0.50000
   0.00000   0.25000   0.75000
   0.00000   0.50000   0.00000
   0.00000   0.50000   0.25000
   0.00000   0.50000   0.50000
   0.00000   0.50000   0.75000
   0.00000   0.75000   0.00000
   0.00000   0.75000   0.25000
   0.00000   0.75000   0.50000
   0.00000   0.75000   0.75000
   0.25000   0.00000   0.00000
   0.25000   0.00000   0.25000
   0.25000   0.00000   0.50000
   0.25000   0.00000   0.75000
   0.25000   0.25000   0.00000
   0.25000   0.25000   0.25000
   0.25000   0.25000   0.50000
   0.25000   0.25000   0.75000
   0.25000   0.50000   0.00000
   0.25000   0.50000   0.25000
   0.25000   0.50000   0.50000
   0.25000   0.50000   0.75000
   0.25000   0.75000   0.00000
   0.25000   0.75000   0.25000
   0.25000   0.75000   0.50000
   0.25000   0.75000   0.75000
   0.50000   0.00000   0.00000
   0.50000   0.00000   0.25000
   0.50000   0.00000   0.50000
   0.50000   0.00000   0.75000
   0.50000   0.25000   0.00000
   0.50000   0.25000   0.25000
   0.50000   0.25000   0.50000
   0.50000   0.25000   0.75000
   0.50000   0.50000   0.00000
   0.50000   0.50000   0.25000
   0.50000   0.50000   0.50000
   0.50000   0.50000   0.75000
   0.50000   0.75000   0.00000
   0.50000   0.75000   0.25000
   0.50000   0.75000   0.50000
   0.50000   0.75000   0.75000
   0.75000   0.00000   0.00000
   0.75000   0.00000   0.25000
   0.75000   0.00000   0.50000
   0.75000   0.00000   0.75000
   0.75000   0.25000   0.00000
   0.75000   0.25000   0.25000
   0.75000   0.25000   0.50000
   0.75000   0.25000   0.75000
   0.75000   0.50000   0.00000
   0.75000   0.50000   0.25000
   0.75000   0.50000   0.50000
   0.75000   0.50000   0.75000
   0.75000   0.75000   0.00000
   0.75000   0.75000   0.25000
   0.75000   0.75000   0.50000
   0.75000   0.75000   0.75000
end kpoints

