&control
calculation='vc-relax',
prefix='cs3ag2i11',
pseudo_dir='./',
outdir='./'
disk_io = 'none'
/
&system
ibrav=0,
nat=64,
ntyp=3,
ecutwfc=80,
ecutrho=400,
occupations = 'smearing' 
degauss = 0.005
/
&electrons
conv_thr=1.0d-8
/
&ions
/
&cell
/

ATOMIC_SPECIES
Cs 1.0 Cs.pbe-sp-hgh.UPF
Ag 1.0 Ag.pbe-dn-rrkjus_psl.0.1.UPF
I 1.0 I.pbe-n-rrkjus_psl.0.2.UPF

CELL_PARAMETERS (angstrom)
   8.229738351   0.000000000  -0.181913780
   0.000000000  17.805881698   0.000000000
  -1.779054868   0.000000000  20.825728868

ATOMIC_POSITIONS (crystal)
Cs       0.262503284   0.621892994   0.928211381
Cs       0.262503284   0.878107006   0.428211381
Cs       0.725559333   0.017710601   0.107694156
Cs       0.725559333   0.482289395   0.607694178
Cs       0.274440667   0.517710575   0.392305852
Cs       0.753156016   0.767074285   0.685606542
Cs       0.753156016   0.732925715   0.185606557
Cs       0.737496686   0.121892994   0.571788619
Cs       0.274440667   0.982289425   0.892305822
Cs       0.246843954   0.267074285   0.814393458
Cs       0.737496686   0.378107006   0.071788634
Cs       0.246843954   0.232925700   0.314393458
Ag       0.241278006   0.311639651   0.559015331
Ag       0.243022179   0.504687627   0.165674663
Ag       0.756977836   1.004687627   0.334325351
Ag       0.756977836   0.495312373   0.834325351
Ag       0.243022179  -0.004687616   0.665674649
Ag       0.758721994   0.688360349   0.440984639
Ag       0.758721994   0.811639651   0.940984669
Ag       0.241278006   0.188360364   0.059015361
I        0.588708004   0.199217038   0.198672424
I        0.246766523   0.158074920   0.540049946
I        0.076142084   0.851634766   0.075431983
I        0.011558185   0.578114378   0.085165831
I        0.999356243   0.797220998   0.862186093
I        0.988441831   0.078114355   0.414834169
I        0.480120259   0.935457417   0.600019231
I        0.789450299   0.536471174   0.426682737
I        0.011558185   0.921885622   0.585165861
I        0.490015259   0.166759130   0.984953080
I        0.004031136   0.450314138   0.232054993
I        0.243263228   0.725678931   0.688362307
I        0.995968858   0.950314138   0.267945007
I        0.411291966   0.699217023   0.301327591
I        0.789450299   0.963528826   0.926682707
I        0.243263228   0.774321069   0.188362337
I        0.004031136   0.049685870   0.732054993
I        0.473004319   0.429244202   0.244602060
I        0.999356243   0.702779002   0.362186093
I        0.526995711   0.929244232   0.255397940
I        0.076142084   0.648365234   0.575431975
I        0.490015259   0.333240885   0.484953110
I        0.000643775   0.297220998   0.637813907
I        0.509984741   0.833240885   0.015046895
I        0.756736772   0.225678946   0.811637693
I        0.480120259   0.564542583   0.100019216
I        0.753233507   0.658074950   0.959950054
I        0.509984741   0.666759115   0.515046920
I        0.995968858   0.549685862   0.767945007
I        0.923857893   0.351634766   0.424568025
I        0.000643775   0.202779017   0.137813922
I        0.588708004   0.300782977   0.698672439
I        0.411291966   0.800782977   0.801327561
I        0.210549701   0.036471145   0.073317263
I        0.753233507   0.841925050   0.459950084
I        0.519879711   0.064542568   0.399980799
I        0.756736772   0.274321069   0.311637663
I        0.988441831   0.421885652   0.914834139
I        0.210549701   0.463528855   0.573317293
I        0.519879711   0.435457447   0.899980769
I        0.923857893   0.148365249   0.924568025
I        0.246766523   0.341925080   0.040049916
I        0.473004319   0.070755790   0.744602060
I        0.526995711   0.570755768   0.755397940

K_POINTS automatic
2 2 2 0 0 0
