&control
calculation='scf',
prefix='ag3(bi2br3)7',
pseudo_dir='./',
outdir='./'
disk_io = 'none'
/
&system
ibrav=0,
nat=76,
ntyp=3,
ecutwfc=20,
ecutrho=100,
occupations = 'smearing' 
degauss = 0.005
/
&electrons
conv_thr=1.0d-8
/
&ions
/
&cell
/

ATOMIC_SPECIES
Bi 1.0 Bi.pz-dn-rrkjus_psl.0.2.2.UPF
Ag 1.0 Ag.pz-dn-rrkjus_psl.0.1.UPF
Br 1.0 Br.pz-n-rrkjus_psl.0.2.UPF

CELL_PARAMETERS {angstrom}
       13.0226488113         0.0000000000         0.0000000000
        0.0000000000        15.0028572083         0.0000000000
       -4.3556145803         0.0000000000        13.4993076080

ATOMIC_POSITIONS {crystal}
Ag     0.540920019         0.841068029         0.382275999
Ag     0.540920019         0.158932000         0.382275999
Ag     0.449921995         0.347631007         0.609692991
Ag     0.449921995         0.652369022         0.609692991
Ag     0.134027004         0.336894006         0.621976972
Ag     0.134027004         0.663106024         0.621976972
Bi     0.899618983         0.000000000         0.069284998
Bi     0.880680978         0.814737022         0.387129992
Bi     0.880680978         0.185262993         0.387129992
Bi     0.754522026         0.824805021         0.029505000
Bi     0.754522026         0.175194994         0.029505000
Bi     0.639653027         0.000000000         0.080256000
Bi     0.779497981         0.324146003         0.606845021
Bi     0.779497981         0.675854027         0.606845021
Bi     0.843667984         0.892907977         0.859673023
Bi     0.843667984         0.107092001         0.859673023
Bi     0.740629971         0.500000000         0.975152016
Bi     0.651637018         0.000000000         0.717097998
Bi     0.457659006         0.397953987         0.140507996
Bi     0.457659006         0.602046013         0.140507996
Bi     0.555235028         0.105255999         0.863380015
Bi     0.555235028         0.894743979         0.863380015
Bi     0.345784992         0.500000000         0.279569000
Bi     0.264539987         0.000000000         0.020852000
Bi     0.145211995         0.396833986         0.143388003
Bi     0.145211995         0.603165984         0.143388003
Bi     0.226292998         0.174544007         0.400554001
Bi     0.226292998         0.825456023         0.400554001
Bi     0.361811012         0.500000000         0.913285971
Bi     0.245091006         0.339287013         0.972582996
Bi     0.245091006         0.660713017         0.972582996
Bi     0.189374998         0.871325016         0.823888004
Bi     0.189374998         0.128674999         0.823888004
Bi     0.088344000         0.500000000         0.928243995
Br     0.997974992         0.777610004         0.251504004
Br     0.997974992         0.222389996         0.251504004
Br     0.015078000         0.500000000         0.251641005
Br     0.908412993         0.360561997         0.464468002
Br     0.908412993         0.639437973         0.464468002
Br     0.851476014         0.000000000         0.305566996
Br     0.658351004         0.500000000         0.250629991
Br     0.819989979         0.500000000         0.697830975
Br     0.764248013         0.858910978         0.534946024
Br     0.764248013         0.141089007         0.534946024
Br     0.895633996         0.361602992         0.980084002
Br     0.895633996         0.638396978         0.980084002
Br     0.682686985         0.777657986         0.247663006
Br     0.682686985         0.222341999         0.247663006
Br     0.665426016         0.277554989         0.738269985
Br     0.665426016         0.722445011         0.738269985
Br     0.530865014         0.000000000         0.294254988
Br     0.574720979         0.346630007         0.464118004
Br     0.574720979         0.653370023         0.464118004
Br     0.429693997         0.862685978         0.031479999
Br     0.429693997         0.137314007         0.031479999
Br     0.588249981         0.357881993         0.974702001
Br     0.588249981         0.642117977         0.974702001
Br     0.424221992         0.858292997         0.538067997
Br     0.424221992         0.141707003         0.538067997
Br     0.472128987         0.500000000         0.711898983
Br     0.327237993         0.781193972         0.257883996
Br     0.327237993         0.218805999         0.257883996
Br     0.326058000         0.748865008         0.756614983
Br     0.326058000         0.251134992         0.756614983
Br     0.093618996         0.863412976         0.009871000
Br     0.093618996         0.136586994         0.009871000
Br     0.241548002         0.353462994         0.471841991
Br     0.241548002         0.646537006         0.471841991
Br     0.178000003         0.000000000         0.302221000
Br     0.295350999         0.000000000         0.733129025
Br     0.156791002         0.500000000         0.713097990
Br     0.090992004         0.855367005         0.535493016
Br     0.090992004         0.144632995         0.535493016
Br     0.014343000         0.000000000         0.744798005
Br     0.990863979         0.270065010         0.745036006
Br     0.990863979         0.729934990         0.745036006

K_POINTS automatic
   2   2   2   0   0   0
