&control
calculation='scf',
prefix='cs2sbcl6',
pseudo_dir='./',
outdir='./'
disk_io = 'none'
/
&system
ibrav=0,
nat=36,
ntyp=3,
ecutwfc=20,
ecutrho=100,
occupations = 'smearing' 
degauss = 0.005
nosym = .true.
/
&electrons
conv_thr=1.0d-8
/
&ions
/
&cell
/

ATOMIC_SPECIES
Cs 1.0 Cs.pz-sp-hgh.UPF
Sb 1.0 Sb.pz-dn-rrkjus_psl.0.3.1.UPF
Cl 1.0 Cl.pz-n-rrkjus_psl.0.1.UPF

CELL_PARAMETERS {angstrom}
       13.2146348953         0.0000000000         0.0000000000
        4.4803546018        12.4319346064         0.0000000000
       -8.8474937790        -6.2159666221         7.5967222011

ATOMIC_POSITIONS {crystal}
Cs	     0.650368989         0.625000000         0.525368989
Cs	     0.875000000         0.349631011         0.974631011
Cs	     0.099630997         0.125000000         0.474631011
Cs	     0.375000000         0.900368989         0.025369000
Cs	     0.099630997         0.625000000         0.974631011
Cs	     0.875000000         0.900368989         0.525368989
Cs	     0.375000000         0.349631011         0.474631011
Cs	     0.650368989         0.125000000         0.025369000
Sb	     0.250000000         0.750000000         0.500000000
Sb	     0.500000000         0.500000000         0.000000000
Sb	     0.750000000         0.250000000         0.500000000
Sb	     0.000000000         0.000000000         0.000000000
Cl	     0.122799002         0.122799002         0.000000000
Cl	     0.476583987         0.749077976         0.727505982
Cl	     0.872798979         0.372799009         0.500000000
Cl	     0.002113000         0.255001009         0.747112989
Cl	     0.877201021         0.877201021         0.000000000
Cl	     0.250921994         0.978428006         0.727505982
Cl	     0.273416013         0.500922024         0.772494018
Cl	     0.499078006         0.271571994         0.772494018
Cl	     0.499078006         0.726584017         0.227505997
Cl	     0.507888019         0.255001009         0.252887011
Cl	     0.005001000         0.757888019         0.752887011
Cl	     0.250921994         0.523415983         0.272493988
Cl	     0.137139007         0.637139022         0.500000000
Cl	     0.728428006         0.500922024         0.227505997
Cl	     0.242111996         0.994998991         0.247113004
Cl	     0.744998991         0.997887015         0.252887011
Cl	     0.747887015         0.994998991         0.752887011
Cl	     0.627201021         0.127201006         0.500000000
Cl	     0.387138993         0.387138993         0.000000000
Cl	     0.612860978         0.612860978         0.000000000
Cl	     0.744998991         0.492112011         0.747112989
Cl	     0.021571999         0.749077976         0.272493988
Cl	     0.005001000         0.252113014         0.247113004
Cl	     0.362861007         0.862860978         0.500000000

K_POINTS automatic
   8   8   8   0   0   0
