&control
calculation='vc-relax',
prefix='bicucl6',
pseudo_dir='./',
outdir='./'
disk_io = 'none'
/
&system
ibrav=0,
nat=32,
ntyp=3,
ecutwfc=80,
ecutrho=400,
occupations = 'smearing' 
degauss = 0.005
/
&electrons
conv_thr=1.0d-8
/
&ions
/
&cell
/

ATOMIC_SPECIES
Bi 1.0 Bi.pbe-dn-rrkjus_psl.0.2.2.UPF
Cu 1.0 Cu.pbe-dn-rrkjus_psl.0.2.UPF
Cl 1.0 Cl.pbe-n-rrkjus_psl.0.1.UPF

CELL_PARAMETERS (angstrom)
   8.770731102   0.064762980  -0.076790375
  -4.240456847   9.020955898   0.197806749
  -1.945890679  -3.913275981  13.361063034

ATOMIC_POSITIONS (crystal)
Bi       0.588709699   0.923552820   0.623059955
Bi       0.036658147   0.686950708   0.127133456
Bi       0.411290301   0.076447158   0.376940015
Bi       0.963341868   0.313049292   0.872866558
Cu       0.283888562   0.615674942   0.761088732
Cu       0.500000000   0.500000000   0.500000000
Cu       0.716111408   0.384325087   0.238911283
Cu       0.000000000   0.000000000   0.000000000
Cl       0.818054074   0.097164293   0.986495392
Cl       0.702585094   0.172218616   0.265203291
Cl       0.297414906   0.827781369   0.734796709
Cl       0.800441645   0.796630452   0.024436049
Cl       0.635707429   0.191906994   0.740990686
Cl       0.270376440   0.402733947   0.788311710
Cl       0.729623560   0.597266053   0.211688290
Cl       0.335168924   0.613062917   0.486110568
Cl       0.199558341   0.203369563   0.975563949
Cl       0.730785596   0.720643934   0.538182418
Cl       0.181945911   0.902835700   0.013504597
Cl       0.712527648   0.059169102   0.487189813
Cl       0.549119182   0.687575242   0.749271509
Cl       0.914641023   0.036365921   0.735897337
Cl       0.269214434   0.279356066   0.461817582
Cl       0.364292571   0.808092976   0.259009314
Cl       1.013598217   0.542527753   0.768541950
Cl       0.781184931   0.430827604   0.973599391
Cl       0.218815069   0.569172396   0.026400614
Cl      -0.013598237   0.457472247   0.231458064
Cl       0.450880847   0.312424758   0.250728520
Cl       0.287472323   0.940830909   0.512810158
Cl       0.664831106   0.386937053   0.513889432
Cl       0.085358969   0.963634094   0.264102634

K_POINTS automatic
3 3 3 0 0 0
