 &control
    calculation   = 'nscf',
    prefix        = 'NbS2',
    tstress       = .true.,
    tprnfor       = .true.,
    pseudo_dir    = './'
    outdir        = './'
    verbosity     = 'high',
    wf_collect    = .true.,
 &end
 &system    
    ibrav       = 4, 
    celldm(1)   = 6.19971137,
    celldm(3)   = 3.46756938,
    nat         = 6, 
    ntyp        = 2,
    occupations = "smearing",
    smearing    = "mp",
    ecutwfc     = 120,
    degauss     = 0.01,
    nbnd        = 34,
 &end
 &electrons
   diagonalization = 'david',
    mixing_mode    = 'plain',
    mixing_beta    = 0.7 ,
    conv_thr       = 1.0d-10,
 &end
ATOMIC_SPECIES crystal
Nb 92.906 Nb.pz-sp-hgh.UPF 
S  32.065 S.pz-hgh.UPF
ATOMIC_POSITIONS crystal
Nb 0.0 0.0  0.25 
Nb 0.0 0.0  0.75
S  1/3 2/3  0.11326
S  2/3 1/3  0.61326
S  2/3 1/3 -0.11326
S  1/3 2/3  0.38674
K_POINTS crystal
144
  0.00000000  0.00000000  0.00000000  6.944444e-03 
  0.00000000  0.00000000  0.25000000  6.944444e-03 
  0.00000000  0.00000000  0.50000000  6.944444e-03 
  0.00000000  0.00000000  0.75000000  6.944444e-03 
  0.00000000  0.16666667  0.00000000  6.944444e-03 
  0.00000000  0.16666667  0.25000000  6.944444e-03 
  0.00000000  0.16666667  0.50000000  6.944444e-03 
  0.00000000  0.16666667  0.75000000  6.944444e-03 
  0.00000000  0.33333333  0.00000000  6.944444e-03 
  0.00000000  0.33333333  0.25000000  6.944444e-03 
  0.00000000  0.33333333  0.50000000  6.944444e-03 
  0.00000000  0.33333333  0.75000000  6.944444e-03 
  0.00000000  0.50000000  0.00000000  6.944444e-03 
  0.00000000  0.50000000  0.25000000  6.944444e-03 
  0.00000000  0.50000000  0.50000000  6.944444e-03 
  0.00000000  0.50000000  0.75000000  6.944444e-03 
  0.00000000  0.66666667  0.00000000  6.944444e-03 
  0.00000000  0.66666667  0.25000000  6.944444e-03 
  0.00000000  0.66666667  0.50000000  6.944444e-03 
  0.00000000  0.66666667  0.75000000  6.944444e-03 
  0.00000000  0.83333333  0.00000000  6.944444e-03 
  0.00000000  0.83333333  0.25000000  6.944444e-03 
  0.00000000  0.83333333  0.50000000  6.944444e-03 
  0.00000000  0.83333333  0.75000000  6.944444e-03 
  0.16666667  0.00000000  0.00000000  6.944444e-03 
  0.16666667  0.00000000  0.25000000  6.944444e-03 
  0.16666667  0.00000000  0.50000000  6.944444e-03 
  0.16666667  0.00000000  0.75000000  6.944444e-03 
  0.16666667  0.16666667  0.00000000  6.944444e-03 
  0.16666667  0.16666667  0.25000000  6.944444e-03 
  0.16666667  0.16666667  0.50000000  6.944444e-03 
  0.16666667  0.16666667  0.75000000  6.944444e-03 
  0.16666667  0.33333333  0.00000000  6.944444e-03 
  0.16666667  0.33333333  0.25000000  6.944444e-03 
  0.16666667  0.33333333  0.50000000  6.944444e-03 
  0.16666667  0.33333333  0.75000000  6.944444e-03 
  0.16666667  0.50000000  0.00000000  6.944444e-03 
  0.16666667  0.50000000  0.25000000  6.944444e-03 
  0.16666667  0.50000000  0.50000000  6.944444e-03 
  0.16666667  0.50000000  0.75000000  6.944444e-03 
  0.16666667  0.66666667  0.00000000  6.944444e-03 
  0.16666667  0.66666667  0.25000000  6.944444e-03 
  0.16666667  0.66666667  0.50000000  6.944444e-03 
  0.16666667  0.66666667  0.75000000  6.944444e-03 
  0.16666667  0.83333333  0.00000000  6.944444e-03 
  0.16666667  0.83333333  0.25000000  6.944444e-03 
  0.16666667  0.83333333  0.50000000  6.944444e-03 
  0.16666667  0.83333333  0.75000000  6.944444e-03 
  0.33333333  0.00000000  0.00000000  6.944444e-03 
  0.33333333  0.00000000  0.25000000  6.944444e-03 
  0.33333333  0.00000000  0.50000000  6.944444e-03 
  0.33333333  0.00000000  0.75000000  6.944444e-03 
  0.33333333  0.16666667  0.00000000  6.944444e-03 
  0.33333333  0.16666667  0.25000000  6.944444e-03 
  0.33333333  0.16666667  0.50000000  6.944444e-03 
  0.33333333  0.16666667  0.75000000  6.944444e-03 
  0.33333333  0.33333333  0.00000000  6.944444e-03 
  0.33333333  0.33333333  0.25000000  6.944444e-03 
  0.33333333  0.33333333  0.50000000  6.944444e-03 
  0.33333333  0.33333333  0.75000000  6.944444e-03 
  0.33333333  0.50000000  0.00000000  6.944444e-03 
  0.33333333  0.50000000  0.25000000  6.944444e-03 
  0.33333333  0.50000000  0.50000000  6.944444e-03 
  0.33333333  0.50000000  0.75000000  6.944444e-03 
  0.33333333  0.66666667  0.00000000  6.944444e-03 
  0.33333333  0.66666667  0.25000000  6.944444e-03 
  0.33333333  0.66666667  0.50000000  6.944444e-03 
  0.33333333  0.66666667  0.75000000  6.944444e-03 
  0.33333333  0.83333333  0.00000000  6.944444e-03 
  0.33333333  0.83333333  0.25000000  6.944444e-03 
  0.33333333  0.83333333  0.50000000  6.944444e-03 
  0.33333333  0.83333333  0.75000000  6.944444e-03 
  0.50000000  0.00000000  0.00000000  6.944444e-03 
  0.50000000  0.00000000  0.25000000  6.944444e-03 
  0.50000000  0.00000000  0.50000000  6.944444e-03 
  0.50000000  0.00000000  0.75000000  6.944444e-03 
  0.50000000  0.16666667  0.00000000  6.944444e-03 
  0.50000000  0.16666667  0.25000000  6.944444e-03 
  0.50000000  0.16666667  0.50000000  6.944444e-03 
  0.50000000  0.16666667  0.75000000  6.944444e-03 
  0.50000000  0.33333333  0.00000000  6.944444e-03 
  0.50000000  0.33333333  0.25000000  6.944444e-03 
  0.50000000  0.33333333  0.50000000  6.944444e-03 
  0.50000000  0.33333333  0.75000000  6.944444e-03 
  0.50000000  0.50000000  0.00000000  6.944444e-03 
  0.50000000  0.50000000  0.25000000  6.944444e-03 
  0.50000000  0.50000000  0.50000000  6.944444e-03 
  0.50000000  0.50000000  0.75000000  6.944444e-03 
  0.50000000  0.66666667  0.00000000  6.944444e-03 
  0.50000000  0.66666667  0.25000000  6.944444e-03 
  0.50000000  0.66666667  0.50000000  6.944444e-03 
  0.50000000  0.66666667  0.75000000  6.944444e-03 
  0.50000000  0.83333333  0.00000000  6.944444e-03 
  0.50000000  0.83333333  0.25000000  6.944444e-03 
  0.50000000  0.83333333  0.50000000  6.944444e-03 
  0.50000000  0.83333333  0.75000000  6.944444e-03 
  0.66666667  0.00000000  0.00000000  6.944444e-03 
  0.66666667  0.00000000  0.25000000  6.944444e-03 
  0.66666667  0.00000000  0.50000000  6.944444e-03 
  0.66666667  0.00000000  0.75000000  6.944444e-03 
  0.66666667  0.16666667  0.00000000  6.944444e-03 
  0.66666667  0.16666667  0.25000000  6.944444e-03 
  0.66666667  0.16666667  0.50000000  6.944444e-03 
  0.66666667  0.16666667  0.75000000  6.944444e-03 
  0.66666667  0.33333333  0.00000000  6.944444e-03 
  0.66666667  0.33333333  0.25000000  6.944444e-03 
  0.66666667  0.33333333  0.50000000  6.944444e-03 
  0.66666667  0.33333333  0.75000000  6.944444e-03 
  0.66666667  0.50000000  0.00000000  6.944444e-03 
  0.66666667  0.50000000  0.25000000  6.944444e-03 
  0.66666667  0.50000000  0.50000000  6.944444e-03 
  0.66666667  0.50000000  0.75000000  6.944444e-03 
  0.66666667  0.66666667  0.00000000  6.944444e-03 
  0.66666667  0.66666667  0.25000000  6.944444e-03 
  0.66666667  0.66666667  0.50000000  6.944444e-03 
  0.66666667  0.66666667  0.75000000  6.944444e-03 
  0.66666667  0.83333333  0.00000000  6.944444e-03 
  0.66666667  0.83333333  0.25000000  6.944444e-03 
  0.66666667  0.83333333  0.50000000  6.944444e-03 
  0.66666667  0.83333333  0.75000000  6.944444e-03 
  0.83333333  0.00000000  0.00000000  6.944444e-03 
  0.83333333  0.00000000  0.25000000  6.944444e-03 
  0.83333333  0.00000000  0.50000000  6.944444e-03 
  0.83333333  0.00000000  0.75000000  6.944444e-03 
  0.83333333  0.16666667  0.00000000  6.944444e-03 
  0.83333333  0.16666667  0.25000000  6.944444e-03 
  0.83333333  0.16666667  0.50000000  6.944444e-03 
  0.83333333  0.16666667  0.75000000  6.944444e-03 
  0.83333333  0.33333333  0.00000000  6.944444e-03 
  0.83333333  0.33333333  0.25000000  6.944444e-03 
  0.83333333  0.33333333  0.50000000  6.944444e-03 
  0.83333333  0.33333333  0.75000000  6.944444e-03 
  0.83333333  0.50000000  0.00000000  6.944444e-03 
  0.83333333  0.50000000  0.25000000  6.944444e-03 
  0.83333333  0.50000000  0.50000000  6.944444e-03 
  0.83333333  0.50000000  0.75000000  6.944444e-03 
  0.83333333  0.66666667  0.00000000  6.944444e-03 
  0.83333333  0.66666667  0.25000000  6.944444e-03 
  0.83333333  0.66666667  0.50000000  6.944444e-03 
  0.83333333  0.66666667  0.75000000  6.944444e-03 
  0.83333333  0.83333333  0.00000000  6.944444e-03 
  0.83333333  0.83333333  0.25000000  6.944444e-03 
  0.83333333  0.83333333  0.50000000  6.944444e-03 
  0.83333333  0.83333333  0.75000000  6.944444e-03
