--
&inputph
  prefix   = 'pb',
  fildyn   = 'pb.dyn',
  ldisp    = .true.,
  nq1=8,
  nq2=8,
  nq3=8,
  tr2_ph   =  1.0d-14,
 /
