&input fildyn='pb.dyn', zasr='simple', flfrc='pb888.fc' /
