&control
calculation='scf',
prefix='cs2bicucl6',
pseudo_dir='./',
outdir='./'
disk_io = 'none'
/
&system
ibrav=0,
nat=40,
ntyp=4,
ecutwfc=20,
ecutrho=100,
occupations = 'smearing' 
degauss = 0.005
/
&electrons
conv_thr=1.0d-8
/
&ions
/
&cell
/

ATOMIC_SPECIES
Cs 1.0 Cs.pz-sp-hgh.UPF
Bi 1.0 Bi.pz-dn-rrkjus_psl.0.2.2.UPF
Cu 1.0 Cu.pz-dn-rrkjus_psl.0.2.UPF
Cl 1.0 Cl.pz-n-rrkjus_psl.0.1.UPF

CELL_PARAMETERS {angstrom}
       11.2639999390         0.0000000000         0.0000000000
        0.0000000000        11.2639999390         0.0000000000
        0.0000000000         0.0000000000        11.2639999390

ATOMIC_POSITIONS {crystal}
Cs     0.300000012         0.250000000         0.250000000
Cs     0.750000000         0.800000012         0.750000000
Cs     0.800000012         0.750000000         0.250000000
Cs     0.300000012         0.250000000         0.750000000
Cs     0.750000000         0.300000012         0.750000000
Cs     0.250000000         0.750000000         0.300000012
Cs     0.250000000         0.750000000         0.800000012
Cs     0.750000000         0.250000000         0.250000000
Bi     0.000000000         0.000000000         0.000000000
Bi     0.000000000         0.500000000         0.500000000
Bi     0.500000000         0.000000000         0.500000000
Bi     0.500000000         0.500000000         0.000000000
Cu     0.500000000         0.500000000         0.500000000
Cu     0.500000000         0.000000000         0.000000000
Cu     0.000000000         0.500000000         0.000000000
Cu     0.000000000         0.000000000         0.500000000
Cl     0.250910014         0.020000000         0.000000000
Cl     0.749089956         0.020000000         0.100000001
Cl     0.000000000         0.250910014         0.020000000
Cl     0.020000000         0.749089956         0.000000000
Cl     0.000000000         0.020000000         0.250910014
Cl     0.020000000         0.000000000         0.749089956
Cl     0.250910014         0.500000000         0.519999981
Cl     0.749089956         0.500000000         0.519999981
Cl     0.020000000         0.750909984         0.500000000
Cl     0.000000000         0.270000011         0.500000000
Cl     0.020000000         0.500000000         0.750910044
Cl     0.000000000         0.500000000         0.270000011
Cl     0.750910044         0.020000000         0.500000000
Cl     0.249089986         0.000000000         0.500000000
Cl     0.500000000         0.250910014         0.500000000
Cl     0.500000000         0.749089956         0.500000000
Cl     0.500000000         0.000000000         0.750910044
Cl     0.500000000         0.000000000         0.249089986
Cl     0.750910044         0.500000000         0.000000000
Cl     0.249089986         0.500000000         0.000000000
Cl     0.500000000         0.750910044         0.000000000
Cl     0.500000000         0.249089986         0.000000000
Cl     0.500000000         0.500000000         0.250910014
Cl     0.500000000         0.500000000         0.749089956

K_POINTS automatic

   1   1   1   0   0   0
