&control
calculation='scf',
prefix='bi6cl7',
pseudo_dir='./',
outdir='./'
disk_io = 'none'
/
&system
ibrav=0,
nat=104,
ntyp=2,
ecutwfc=20,
ecutrho=100,
occupations = 'smearing' 
degauss = 0.005
/
&electrons
conv_thr=1.0d-8
/
&ions
/
&cell
/

ATOMIC_SPECIES
Bi 1.0 Bi.pz-dn-rrkjus_psl.0.2.2.UPF
Cl 1.0 Cl.pz-n-rrkjus_psl.0.1.UPF

CELL_PARAMETERS {angstrom}
        8.8711786270         0.0000000000         0.0000000000
        0.0000000000        15.4212112427         0.0000000000
        0.0000000000         0.0000000000        23.4275302887

ATOMIC_POSITIONS {crystal}
Bi     0.000000000         0.315705001         0.857460976
Bi     0.500000000         0.046712998         0.912698984
Bi     0.683838010         0.660885990         0.299629003
Bi     0.000000000         0.097457998         0.411101013
Bi     0.000000000         0.066969000         0.102835000
Bi     0.500000000         0.891273022         0.431825012
Bi     0.500000000         0.597458005         0.088899001
Bi     0.312144011         0.717168987         0.450242013
Bi     0.763487995         0.154268995         0.652612984
Bi     0.736512005         0.345730990         0.152612999
Bi     0.236512005         0.154268995         0.652612984
Bi     0.816161990         0.160886005         0.200370997
Bi     0.183837995         0.839114010         0.799628973
Bi     0.500000000         0.433030993         0.602835000
Bi     0.812143981         0.217169002         0.049757998
Bi     0.236512005         0.845731020         0.347386986
Bi     0.500000000         0.184294999         0.357461005
Bi     0.500000000         0.566968977         0.397165000
Bi     0.000000000         0.453287005         0.412699014
Bi     0.000000000         0.671073020         0.759157002
Bi     0.763487995         0.845731020         0.347386986
Bi     0.312144011         0.282831013         0.549758017
Bi     0.736512005         0.654268980         0.847387016
Bi     0.500000000         0.402541995         0.911100984
Bi     0.000000000         0.546712995         0.587301016
Bi     0.000000000         0.684294999         0.142538995
Bi     0.812143981         0.782831013         0.950241983
Bi     0.000000000         0.328927010         0.240842998
Bi     0.500000000         0.171073005         0.740842998
Bi     0.500000000         0.828926980         0.259157002
Bi     0.816161990         0.839114010         0.799628973
Bi     0.500000000         0.108727001         0.568175018
Bi     0.000000000         0.902541995         0.588899016
Bi     0.263487995         0.345730990         0.152612999
Bi     0.187856004         0.217169002         0.049757998
Bi     0.316161990         0.660885990         0.299629003
Bi     0.187856004         0.782831013         0.950241983
Bi     0.683838010         0.339114010         0.700371027
Bi     0.316161990         0.339114010         0.700371027
Bi     0.263487995         0.654268980         0.847387016
Bi     0.687856019         0.717168987         0.450242013
Bi     0.500000000         0.953287005         0.087301001
Bi     0.000000000         0.391272992         0.068175003
Bi     0.000000000         0.608726978         0.931824982
Bi     0.687856019         0.282831013         0.549758017
Bi     0.500000000         0.815705001         0.642539024
Bi     0.183837995         0.160886005         0.200370997
Bi     0.000000000         0.933031023         0.897165000
Cl     0.194068998         0.581771016         0.058568001
Cl     0.307444990         0.292603999         0.836306989
Cl     0.000000000         0.279751986         0.462592006
Cl     0.500000000         0.322697014         0.439440012
Cl     0.192554995         0.792604029         0.663693011
Cl     0.500000000         0.677303016         0.560559988
Cl     0.285425991         0.056851000         0.836049974
Cl     0.500000000         0.875905991         0.891340017
Cl     0.805930972         0.581771016         0.058568001
Cl     0.694069028         0.918228984         0.558568001
Cl     0.783558011         0.500000000         0.500000000
Cl     0.694069028         0.081771001         0.441431999
Cl     0.214573994         0.556851029         0.663950026
Cl     0.000000000         0.375905991         0.608659983
Cl     0.500000000         0.124094002         0.108659998
Cl     0.000000000         0.822696984         0.060559999
Cl     0.000000000         0.548933029         0.210232005
Cl     0.714573979         0.056851000         0.836049974
Cl     0.000000000         0.624094009         0.391339988
Cl     0.500000000         0.282420993         0.263525009
Cl     0.000000000         0.451067001         0.789767981
Cl     0.500000000         0.512260020         0.186876997
Cl     0.000000000         0.012260000         0.313122988
Cl     0.500000000         0.575434983         0.947988987
Cl     0.500000000         0.220247999         0.962592006
Cl     0.714573979         0.943148971         0.163949996
Cl     0.283558011         0.000000000         0.000000000
Cl     0.000000000         0.217579007         0.763525009
Cl     0.805930972         0.418229014         0.941431999
Cl     0.000000000         0.720247984         0.537407994
Cl     0.500000000         0.424564987         0.052011002
Cl     0.785426021         0.443149000         0.336050004
Cl     0.785426021         0.556851029         0.663950026
Cl     0.000000000         0.924565017         0.447988987
Cl     0.305931002         0.081771001         0.441431999
Cl     0.716441989         0.000000000         0.000000000
Cl     0.692555010         0.707395971         0.163692996
Cl     0.192554995         0.207396001         0.336306989
Cl     0.285425991         0.943148971         0.163949996
Cl     0.500000000         0.048932999         0.289768010
Cl     0.194068998         0.418229014         0.941431999
Cl     0.500000000         0.951066971         0.710232019
Cl     0.214573994         0.443149000         0.336050004
Cl     0.216442004         0.500000000         0.500000000
Cl     0.500000000         0.779752016         0.037408002
Cl     0.500000000         0.487740010         0.813122988
Cl     0.000000000         0.177303001         0.939440012
Cl     0.000000000         0.782420993         0.236475006
Cl     0.305931002         0.918228984         0.558568001
Cl     0.807444990         0.207396001         0.336306989
Cl     0.500000000         0.717579007         0.736474991
Cl     0.692555010         0.292603999         0.836306989
Cl     0.807444990         0.792604029         0.663693011
Cl     0.000000000         0.075434998         0.552011013
Cl     0.000000000         0.987739980         0.686877012
Cl     0.307444990         0.707395971         0.163692996

K_POINTS automatic
