 &control
    calculation     = 'scf'
    prefix          = 'si'
    restart_mode    = 'from_scratch'
    wf_collect      = .true.
    pseudo_dir      = '../pp'
    outdir          = './'
    tprnfor         = .true.
    tstress         = .true.
    etot_conv_thr   = 1.0d-12
 /
 &system
    ibrav           = 2
    celldm(1)       = 10.3349  
    nat             = 2
    ntyp            = 1
    ecutwfc         = 40
    noncolin        =.false.
    lspinorb        =.false.
 /
 &electrons
    diagonalization = 'cg'
    mixing_beta     = 0.7
    conv_thr        = 1.0d-14
 /
ATOMIC_SPECIES
  Si  28.0855  Si_r.upf
ATOMIC_POSITIONS alat
  Si   0.00  0.00  0.00
  Si   0.25  0.25  0.25
K_POINTS automatic
18 18 18 0 0 0

