&control
calculation='scf',
prefix='agbr',
pseudo_dir='./',
outdir='./'
disk_io = 'none'
/
&system
ibrav=0,
nat=2,
ntyp=2,
ecutwfc=20,
ecutrho=100,
occupations = 'smearing' 
degauss = 0.005
/
&electrons
conv_thr=1.0d-8
/
&ions
/
&cell
/

ATOMIC_SPECIES
Ag 1.0 Ag.pz-dn-rrkjus_psl.0.1.UPF
Br 1.0 Br.pz-n-rrkjus_psl.0.2.UPF

CELL_PARAMETERS {angstrom}
        4.4757833481         0.0000000000         0.0000000000
        2.2378916740         3.8761420813         0.0000000000
        2.2378916740         1.2920473604         3.6544618007

ATOMIC_POSITIONS {crystal}
Ag     0.000000000         0.000000000         0.000000000
Br     0.750000000         0.750000000         0.750000000

K_POINTS automatic
   17   34   34    0    0    0
