--
&inputph
  tr2_ph  = 1.0d-16,
  prefix  = 'ana',
  ldisp   = .true.,
  nq1=4, nq2=4, nq3=4
  start_q = 6
  last_q  = 13
  outdir  = './',
  fildyn  = 'ana.dyn',
  fildvscf= 'dvscf'
  epsil   = .true.
/
