&control
calculation='vc-relax',
prefix='csbr4',
pseudo_dir='./',
outdir='./'
disk_io = 'none'
/
&system
ibrav=0,
nat=20,
ntyp=2,
ecutwfc=80,
ecutrho=400,
occupations = 'smearing' 
degauss = 0.005
/
&electrons
conv_thr=1.0d-8
/
&ions
/
&cell
/

ATOMIC_SPECIES
Cs 1.0 Cs.pbe-sp-hgh.UPF
Br 1.0 Br.pbe-n-rrkjus_psl.0.2.UPF       

CELL_PARAMETERS (angstrom)
   8.537912325   0.000005871  -0.152350329
   0.000004827   7.293016031  -0.000003567
  -3.834737498  -0.000007182   9.068549060

ATOMIC_POSITIONS (crystal)
Cs       0.219250340   0.857513695   0.307831253
Cs       0.780749254   0.357514818   0.192168965
Cs       0.219250716   0.642485152   0.807831050
Cs       0.780749630   0.142486328   0.692168747
Br       0.817434203   0.955410832   0.032230525
Br       0.052367772   0.368516940   0.998310142
Br       0.375520801   0.206579899   0.895583418
Br       0.182566085   0.455410584   0.467768404
Br       0.457072307   0.876685771   0.673657309
Br       0.542927693   0.123314237   0.326342691
Br       0.182565827   0.044589172   0.967769478
Br       0.375519725   0.293421633   0.395584824
Br       0.542927609   0.376685739   0.826341423
Br       0.947633031   0.868518207   0.501690184
Br       0.817433945   0.544589416   0.532231596
Br       0.947632217   0.631483060   0.001689880
Br       0.052366958   0.131481793   0.498309786
Br       0.624480245   0.706578367   0.604415206
Br       0.624479169   0.793420116   0.104416560
Br       0.457072391   0.623314261   0.173658577

K_POINTS automatic
2 2 2 0 0 0
