&control
calculation='vc-relax',
prefix='cs2agcl4',
pseudo_dir='./',
outdir='./'
disk_io = 'none'
/
&system
ibrav=0,
nat=28,
ntyp=3,
ecutwfc=80,
ecutrho=400,
occupations = 'smearing' 
degauss = 0.005
/
&electrons
conv_thr=1.0d-8
/
&ions
/
&cell
/

ATOMIC_SPECIES
Cs 1.0 Cs.pbe-sp-hgh.UPF
Ag 1.0 Ag.pbe-dn-rrkjus_psl.0.1.UPF
Cl 1.0 Cl.pbe-n-rrkjus_psl.0.1.UPF

CELL_PARAMETERS (angstrom)
   8.029629463   0.000000000   0.000000000
   0.000000000   9.827777410   0.002112134
   0.000000000   0.003079974  13.722570536

ATOMIC_POSITIONS (crystal)
Cs       0.250000000   0.156314400   0.918922014
Cs       0.750000000   0.343755086   0.419305790
Cs       0.250000000   0.656244944   0.580694210
Cs       0.250000000   0.069200004   0.283242077
Cs       0.750000000   0.930800016   0.716757923
Cs       0.750000000   0.843685585   0.081077971
Cs       0.250000000   0.569072746   0.216676976
Cs       0.750000000   0.430927224   0.783323009
Ag       0.250000000   0.689299413   0.898052014
Ag       0.250000000   0.189216901   0.602068579
Ag       0.750000000   0.810783084   0.397931391
Ag       0.750000000   0.310700587   0.101948001
Cl       0.550986428   0.210036144   0.619445470
Cl       0.949013572   0.210036144   0.619445470
Cl       0.551098630   0.709917077   0.880973092
Cl       0.250000000   0.338611209   0.451889571
Cl       0.050986451   0.789963856   0.380554530
Cl       0.250000000   0.838761320   0.048005899
Cl       0.448901340   0.290082908   0.119026908
Cl       0.750000000   0.523253298   0.202041457
Cl       0.948901370   0.709917077   0.880973092
Cl       0.250000000   0.476746702   0.797958550
Cl       0.051098653   0.290082908   0.119026908
Cl       0.750000000   1.023778917   0.297969729
Cl       0.449013542   0.789963856   0.380554530
Cl       0.750000000   0.661388761   0.548110399
Cl       0.750000000   0.161238695   0.951994116
Cl       0.250000000  -0.023778905   0.702030271

K_POINTS automatic
3 3 3 0 0 0
