&control
calculation='scf',
prefix='sbcl3',
pseudo_dir='./',
outdir='./'
disk_io = 'none'
/
&system
ibrav=0,
nat=16,
ntyp=2,
ecutwfc=20,
ecutrho=100,
occupations = 'smearing' 
degauss = 0.005
/
&electrons
conv_thr=1.0d-8
/
&ions
/
&cell
/

ATOMIC_SPECIES
Sb 1.0 Sb.pz-dn-rrkjus_psl.0.3.1.UPF
Cl 1.0 Cl.pz-n-rrkjus_psl.0.1.UPF

CELL_PARAMETERS {angstrom}
        6.9477300644         0.0000000000         0.0000000000
        0.0000000000         8.8692121506         0.0000000000
        0.0000000000         0.0000000000         9.3537635803

ATOMIC_POSITIONS {crystal}
Sb	     0.988355994         0.001435000         0.750000000
Sb	     0.488355994         0.498564988         0.250000000
Sb	     0.511644006         0.501434982         0.750000000
Sb	     0.011644000         0.998565018         0.250000000
Cl	     0.125918999         0.167633995         0.432927996
Cl	     0.625918984         0.332365990         0.567071974
Cl	     0.374080986         0.667634010         0.067071997
Cl	     0.874081016         0.832365990         0.932928026
Cl	     0.687492013         0.083062999         0.250000000
Cl	     0.187491998         0.416936994         0.750000000
Cl	     0.812507987         0.583063006         0.250000000
Cl	     0.312507987         0.916936994         0.750000000
Cl	     0.125918999         0.167633995         0.067071997
Cl	     0.625918984         0.332365990         0.932928026
Cl	     0.374080986         0.667634010         0.432927996
Cl	     0.874081016         0.832365990         0.567071974

K_POINTS automatic
   11   11   11    0    0    0
