&control
calculation='scf',
prefix='sbbr3',
pseudo_dir='./',
outdir='./'
disk_io = 'none'
/
&system
ibrav=0,
nat=16,
ntyp=2,
ecutwfc=20,
ecutrho=100,
occupations = 'smearing' 
degauss = 0.005
/
&electrons
conv_thr=1.0d-8
/
&ions
/
&cell
/

ATOMIC_SPECIES
Sb 1.0 Sb.pz-dn-rrkjus_psl.0.3.1.UPF
Br 1.0 Br.pz-n-rrkjus_psl.0.2.UPF

CELL_PARAMETERS {angstrom}
        7.1701378822         0.0000000000         0.0000000000
        0.0000000000         8.7456474304         0.0000000000
        0.0000000000         0.0000000000        10.3417196274

ATOMIC_POSITIONS {crystal}
Sb	     0.478123993         0.501101017         0.250000000
Sb	     0.978124022         0.998898983         0.750000000
Sb	     0.521875978         0.498899013         0.750000000
Sb	     0.021876000         0.001101000         0.250000000
Br	     0.638670981         0.320659012         0.929298997
Br	     0.678831995         0.077434003         0.250000000
Br	     0.138670996         0.179341003         0.070701003
Br	     0.138670996         0.179341003         0.429298997
Br	     0.178831995         0.422565997         0.750000000
Br	     0.321168005         0.922565997         0.750000000
Br	     0.361328989         0.679341018         0.070701003
Br	     0.861329019         0.820658982         0.929298997
Br	     0.361328989         0.679341018         0.429298997
Br	     0.861329019         0.820658982         0.570701003
Br	     0.638670981         0.320659012         0.570701003
Br	     0.821168005         0.577434003         0.250000000

K_POINTS automatic
   9   9   9   0   0   0
