&control
calculation='vc-relax',
prefix='cscucl2',
pseudo_dir='./',
outdir='./'
disk_io = 'none'
/
&system
ibrav=0,
nat=8,
ntyp=3,
ecutwfc=80,
ecutrho=400,
occupations = 'smearing' 
degauss = 0.005
/
&electrons
conv_thr=1.0d-8
/
&ions
/
&cell
/

ATOMIC_SPECIES
Cs 1.0 Cs.pbe-sp-hgh.UPF
Cu 1.0 Cu.pbe-dn-rrkjus_psl.0.2.UPF
Cl 1.0 Cl.pbe-n-rrkjus_psl.0.1.UPF

CELL_PARAMETERS {angstrom}
        5.3699283600         0.0000000000         0.0000000000
        0.0000000000         5.3699283600         0.0000000000
        0.0000000000         0.0000000000        10.43071556090

ATOMIC_POSITIONS {crystal}
Cs     0.000000000         0.500000000         0.706757009
Cs     0.500000000         0.000000000         0.293242991
Cu     0.000000000         0.500000000         0.099959999
Cu     0.500000000         0.000000000         0.900039971
Cl     0.500000000         0.500000000         0.000000000
Cl     0.000000000         0.500000000         0.355075985
Cl     0.500000000         0.000000000         0.644923985
Cl     0.000000000         0.000000000         0.000000000

K_POINTS automatic
7 7 7 0 0 0
