&control
calculation='scf',
prefix='biaubr6',
pseudo_dir='./',
outdir='./'
disk_io = 'none'
/
&system
ibrav=0,
nat=32,
ntyp=3,
ecutwfc=20,
ecutrho=100,
occupations = 'smearing' 
degauss = 0.005
/
&electrons
conv_thr=1.0d-8
/
&ions
/
&cell
/

ATOMIC_SPECIES
Bi 1.0 Bi.pz-dn-rrkjus_psl.0.2.2.UPF
Au 1.0 Au.pz-dn-rrkjus_psl.0.1.UPF
Br 1.0 Br.pz-n-rrkjus_psl.0.2.UPF

CELL_PARAMETERS {angstrom}
        8.1577510834         0.0000000000         0.0000000000
       -4.0001269782         9.8938941692         0.0000000000
       -1.5032025668        -4.5540251103        14.3753780554

ATOMIC_POSITIONS {crystal}
Bi	     0.600508988         0.929444015         0.619602025
Bi	     0.399491012         0.070556000         0.380398005
Bi	     0.972395003         0.314137012         0.872537971
Bi	     0.027605001         0.685863018         0.127462000
Au	     0.295280010         0.629289985         0.764537990
Au	     0.704720020         0.370709985         0.235461995
Au	     0.500000000         0.500000000         0.500000000
Au	     0.000000000         0.000000000         0.000000000
Br	     0.612564027         0.728676975         0.748636007
Br	     0.387436002         0.271322995         0.251363993
Br	     0.266012013         0.840240002         0.739528000
Br	     0.733987987         0.159759998         0.260472000
Br	     0.975499988         0.531683028         0.779211998
Br	     0.024499999         0.468317002         0.220788002
Br	     0.321370989         0.414626986         0.787533998
Br	     0.678628981         0.585372984         0.212466002
Br	     0.694307029         0.370294005         0.506241977
Br	     0.305693001         0.629706025         0.493757993
Br	     0.768307984         0.722889006         0.522625029
Br	     0.231692001         0.277110994         0.477375001
Br	     0.780278027         0.101584002         0.970336974
Br	     0.219722003         0.898415983         0.029663000
Br	     0.763077021         0.801406980         0.033728000
Br	     0.236922994         0.198593006         0.966271996
Br	     0.613443017         0.186252996         0.744315982
Br	     0.386557013         0.813746989         0.255683988
Br	     0.961596012         0.053066000         0.722956002
Br	     0.038403999         0.946933985         0.277043998
Br	     0.735422015         0.048576001         0.482726991
Br	     0.264578015         0.951424003         0.517273009
Br	     0.755657017         0.435171008         0.974341989
Br	     0.244342998         0.564828992         0.025658000

K_POINTS automatic
