&control
calculation='scf',
prefix='cs3cu2br5',
pseudo_dir='./',
outdir='./'
disk_io = 'none'
/
&system
ibrav=0,
nat=40,
ntyp=3,
ecutwfc=20,
ecutrho=100,
occupations = 'smearing' 
degauss = 0.005
/
&electrons
conv_thr=1.0d-8
/
&ions
/
&cell
/

ATOMIC_SPECIES
Cs 1.0 Cs.pz-sp-hgh.UPF
Cu 1.0 Cu.pz-dn-rrkjus_psl.0.2.UPF
Br 1.0 Br.pz-n-rrkjus_psl.0.2.UPF

CELL_PARAMETERS {angstrom}
        9.8489208221         0.0000000000         0.0000000000
        0.0000000000        11.1055927277         0.0000000000
        0.0000000000         0.0000000000        13.8513793945

ATOMIC_POSITIONS {crystal}
Cs	     0.401932001         0.750000000         0.454365999
Cs	     0.546603024         0.514747024         0.822483003
Cs	     0.098067999         0.250000000         0.954366028
Cs	     0.046603002         0.514747024         0.677516997
Cs	     0.453397006         0.485253006         0.177516997
Cs	     0.046603002         0.985252976         0.677516997
Cs	     0.546603024         0.985252976         0.822483003
Cs	     0.953396976         0.485253006         0.322483003
Cs	     0.953396976         0.014747000         0.322483003
Cs	     0.901932001         0.750000000         0.045634001
Cs	     0.598067999         0.250000000         0.545633972
Cs	     0.453397006         0.014747000         0.177516997
Cu	     0.747487009         0.750000000         0.630773008
Cu	     0.292360991         0.750000000         0.047830999
Cu	     0.252512991         0.250000000         0.369226992
Cu	     0.752512991         0.250000000         0.130772993
Cu	     0.207638994         0.250000000         0.547830999
Cu	     0.707638979         0.250000000         0.952169001
Cu	     0.792361021         0.750000000         0.452169001
Cu	     0.247486994         0.750000000         0.869226992
Br	     0.531584024         0.750000000         0.011966000
Br	     0.668166995         0.250000000         0.290560007
Br	     0.298391014         0.250000000         0.707817972
Br	     0.168166995         0.250000000         0.209439993
Br	     0.031583998         0.750000000         0.488034010
Br	     0.191585004         0.936667979         0.947255015
Br	     0.701609015         0.750000000         0.292181998
Br	     0.808414996         0.063331999         0.052745000
Br	     0.308414996         0.063331999         0.447254986
Br	     0.831833005         0.750000000         0.790560007
Br	     0.968415976         0.250000000         0.511965990
Br	     0.808414996         0.436668009         0.052745000
Br	     0.468416005         0.250000000         0.988034010
Br	     0.331833005         0.750000000         0.709439993
Br	     0.691585004         0.563332021         0.552744985
Br	     0.691585004         0.936667979         0.552744985
Br	     0.308414996         0.436668009         0.447254986
Br	     0.798390985         0.250000000         0.792182028
Br	     0.201609001         0.750000000         0.207818002
Br	     0.191585004         0.563332021         0.947255015

K_POINTS automatic
   10   10   10    0    0    0
