&control
calculation='scf',
prefix='cscu2br3',
pseudo_dir='./',
outdir='./'
disk_io = 'none'
/
&system
ibrav=0,
nat=12,
ntyp=3,
ecutwfc=20,
ecutrho=100,
occupations = 'smearing' 
degauss = 0.005
/
&electrons
conv_thr=1.0d-8
/
&ions
/
&cell
/

ATOMIC_SPECIES
Cs 1.0 Cs.pz-sp-hgh.UPF
Cu 1.0 Cu.pz-dn-rrkjus_psl.0.2.UPF
Br 1.0 Br.pz-n-rrkjus_psl.0.2.UPF

CELL_PARAMETERS {angstrom}
        8.2142848969         0.0000000000         0.0000000000
       -2.0985436506         7.9416994978         0.0000000000
        0.0000000000         0.0000000000         5.6220812798

ATOMIC_POSITIONS {crystal}
Cs	     0.678255975         0.321743995         0.750000000
Cs	     0.321743995         0.678255975         0.250000000
Cu	     0.151765004         0.151765004         0.000000000
Cu	     0.848235011         0.848235011         0.500000000
Cu	     0.848235011         0.848235011         0.000000000
Cu	     0.151765004         0.151765004         0.500000000
Br	     0.115470998         0.884528995         0.750000000
Br	     0.884528995         0.115470998         0.250000000
Br	     0.163012996         0.398829013         0.750000000
Br	     0.836987019         0.601171017         0.250000000
Br	     0.398829013         0.163012996         0.250000000
Br	     0.601171017         0.836987019         0.750000000

K_POINTS automatic
   5   5   5   0   0   0
