&control
calculation='scf',
prefix='bi9aubr9',
pseudo_dir='./',
outdir='./'
disk_io = 'none'
/
&system
ibrav=0,
nat=76,
ntyp=3,
ecutwfc=20,
ecutrho=100,
occupations = 'smearing' 
degauss = 0.005
/
&electrons
conv_thr=1.0d-8
/
&ions
/
&cell
/

ATOMIC_SPECIES
Bi 1.0 Bi.pz-dn-rrkjus_psl.0.2.2.UPF
Au 1.0 Au.pz-dn-rrkjus_psl.0.1.UPF
Br 1.0 Br.pz-n-rrkjus_psl.0.2.UPF

CELL_PARAMETERS {angstrom}
       10.8764495850         0.0000000000         0.0000000000
        0.0000000000        15.5938072205         0.0000000000
       -0.7917719212         0.0000000000        15.0668720742

ATOMIC_POSITIONS {crystal}
Bi	     0.414599001         0.314976007         0.935178995
Bi	     0.772619009         0.549214005         0.973353982
Bi	     0.775690019         0.994404018         0.775671005
Bi	     0.447228014         0.136063993         0.645828009
Bi	     0.775690019         0.505595982         0.275671005
Bi	     0.053093001         0.856701016         0.187932000
Bi	     0.309900999         0.852155030         0.476047009
Bi	     0.381237000         0.929284990         0.670952022
Bi	     0.967465997         0.641879022         0.307466000
Bi	     0.227381006         0.049214002         0.526646018
Bi	     0.946906984         0.356700987         0.312067986
Bi	     0.690099001         0.147845000         0.523953021
Bi	     0.381237000         0.570715010         0.170952007
Bi	     0.552771986         0.863936007         0.354171991
Bi	     0.618763030         0.070715003         0.329048008
Bi	     0.967465997         0.858120978         0.807465971
Bi	     0.309900999         0.647844970         0.976046979
Bi	     0.585400999         0.814975977         0.564821005
Bi	     0.772619009         0.950785995         0.473354012
Bi	     0.032534000         0.141879007         0.192534000
Bi	     0.224309996         0.494403988         0.724328995
Bi	     0.946906984         0.143298998         0.812067986
Bi	     0.668523014         0.986813009         0.955763996
Bi	     0.032534000         0.358121008         0.692534029
Bi	     0.618763030         0.429284990         0.829047978
Bi	     0.224309996         0.005596000         0.224328995
Bi	     0.227381006         0.450785995         0.026645999
Bi	     0.053093001         0.643298984         0.687932014
Bi	     0.585400999         0.685024023         0.064820997
Bi	     0.668523014         0.513186991         0.455763996
Bi	     0.331476986         0.013187000         0.044236001
Bi	     0.690099001         0.352155000         0.023953000
Bi	     0.552771986         0.636063993         0.854171991
Bi	     0.331476986         0.486813009         0.544236004
Bi	     0.447228014         0.363936007         0.145827994
Bi	     0.414599001         0.185023993         0.435178995
Au	     0.383017987         0.005744000         0.382212013
Au	     0.616981983         0.994256020         0.617788017
Au	     0.383017987         0.494255990         0.882211983
Au	     0.616981983         0.505743980         0.117788002
Br	     0.823864996         0.664951980         0.485969990
Br	     0.169045001         0.851917982         0.013678000
Br	     0.505999029         0.888967991         0.128959998
Br	     0.494001001         0.388967991         0.371039987
Br	     0.994575977         0.371142000         0.875859022
Br	     0.257991999         0.754749000         0.253841013
Br	     0.978780985         0.367381006         0.122065000
Br	     0.234156996         0.248290002         0.757836998
Br	     0.169045001         0.648082018         0.513678014
Br	     0.830955029         0.148082003         0.986321986
Br	     0.494955987         0.869713008         0.876372993
Br	     0.505999029         0.611032009         0.628960013
Br	     0.854978025         0.503809988         0.679059982
Br	     0.742007971         0.254749000         0.246159002
Br	     0.257991999         0.745251000         0.753840983
Br	     0.854978025         0.996190012         0.179059997
Br	     0.505043983         0.130287006         0.123627000
Br	     0.830955029         0.351918012         0.486321986
Br	     0.765842974         0.751709998         0.242163002
Br	     0.494955987         0.630286992         0.376372993
Br	     0.234156996         0.251709998         0.257836998
Br	     0.145022005         0.003810000         0.820940018
Br	     0.823864996         0.835048020         0.985970020
Br	     0.021219000         0.632619023         0.877934992
Br	     0.742007971         0.245251000         0.746159017
Br	     0.021219000         0.867380977         0.377934992
Br	     0.994575977         0.128858000         0.375858992
Br	     0.145022005         0.496190012         0.320939988
Br	     0.176135004         0.335047990         0.514029980
Br	     0.505043983         0.369713008         0.623627007
Br	     0.978780985         0.132618994         0.622065008
Br	     0.005424000         0.628857970         0.124141000
Br	     0.494001001         0.111032002         0.871039987
Br	     0.765842974         0.748290002         0.742163002
Br	     0.005424000         0.871142030         0.624140978
Br	     0.176135004         0.164951995         0.014030000

K_POINTS automatic
   2   2   2   0   0   0
