&control
calculation='scf',
prefix='cs2biaui6',
pseudo_dir='./',
outdir='./'
disk_io = 'none'
/
&system
ibrav=0,
nat=10,
ntyp=4,
ecutwfc=20,
ecutrho=100,
occupations = 'smearing' 
degauss = 0.005
/
&electrons
conv_thr=1.0d-8
/
&ions
/
&cell
/

ATOMIC_SPECIES
Cs 1.0 Cs.pz-sp-hgh.UPF
Bi 1.0 Bi.pz-dn-rrkjus_psl.0.2.2.UPF
Au 1.0 Au.pz-dn-rrkjus_psl.0.1.UPF
I 1.0 I.pz-n-rrkjus_psl.0.2.UPF

CELL_PARAMETERS {angstrom}
   5.878304778   0.000000000   5.878304778
   5.878304778   5.878304778   0.000000000
   0.000000000   5.878304778   5.878304778

ATOMIC_POSITIONS {crystal}
Bi      -0.000000000   0.000000000   0.000000000
Au       0.500000000   0.500000000   0.500000000
I        0.741262272   0.258737698   0.741262272
I        0.258737728   0.741262272   0.258737728
I        0.741262272   0.258737728   0.258737728
I        0.258737698   0.741262272   0.741262272
I        0.741262272   0.741262272   0.258737698
I        0.258737728   0.258737728   0.741262272
Cs       0.250000000   0.250000000   0.250000000
Cs       0.749999940   0.749999940   0.749999940

K_POINTS automatic
   5   5   5   0   0   0
