&control
calculation='vc-relax',
prefix='cs3cu2br11',
pseudo_dir='./',
outdir='./'
disk_io = 'none'
/
&system
ibrav=0,
nat=64,
ntyp=3,
ecutwfc=80,
ecutrho=400,
occupations = 'smearing' 
degauss = 0.005
/
&electrons
conv_thr=1.0d-8
/
&ions
/
&cell
/

ATOMIC_SPECIES
Cs 1.0 Cs.pbe-sp-hgh.UPF
Cu 1.0 Cu.pbe-dn-rrkjus_psl.0.2.UPF
Br 1.0 Br.pbe-n-rrkjus_psl.0.2.UPF

CELL_PARAMETERS (angstrom)
   7.700023441   0.000000000  -0.067773534
   0.000000000  16.837684547   0.000000000
  -1.412506544   0.000000000  19.468379190

ATOMIC_POSITIONS (crystal)
Cs       0.260130434   0.625695750   0.925488461
Cs       0.260130434   0.874304250   0.425488461
Cs       0.735155274   0.027510870   0.108585551
Cs       0.735155274   0.472489126   0.608585573
Cs       0.264844726   0.527510844   0.391414457
Cs       0.750251427   0.779564970   0.679053460
Cs       0.750251427   0.720435030   0.179053475
Cs       0.739869536   0.125695750   0.574511539
Cs       0.264844726   0.972489156   0.891414427
Cs       0.249748543   0.279564970   0.820946540
Cs       0.739869536   0.374304250   0.074511554
Cs       0.249748543   0.220435015   0.320946540
Cu       0.242996352   0.312742697   0.552411072
Cu       0.250326396   0.504650318   0.162603952
Cu       0.749673619   1.004650318   0.337396062
Cu       0.749673619   0.495349682   0.837396062
Cu       0.250326396  -0.004650307   0.662603938
Cu       0.757003648   0.687257303   0.447588898
Cu       0.757003648   0.812742697   0.947588928
Cu       0.242996352   0.187257318   0.052411102
Br       0.622433861   0.212053619   0.208179553
Br       0.241010715   0.174799805   0.527311437
Br       0.077190737   0.858499471   0.082393568
Br       0.031217150   0.569484217   0.092002524
Br       0.967760108   0.793848686   0.868421347
Br       0.968782866   0.069484194   0.407997476
Br       0.465320892   0.942035170   0.596378061
Br       0.772841868   0.548834240   0.428110530
Br       0.031217150   0.930515783   0.592002554
Br       0.476812432   0.167631107   0.983434983
Br       0.035836858   0.450761546   0.227752613
Br       0.227901647   0.713734710   0.686877905
Br       0.964163136   0.950761546   0.272247387
Br       0.377566109   0.712053604   0.291820462
Br       0.772841868   0.951165760   0.928110500
Br       0.227901647   0.786265290   0.186877935
Br       0.035836858   0.049238462   0.727752613
Br       0.469398669   0.443048708   0.235137695
Br       0.967760108   0.706151314   0.368421347
Br       0.530601361   0.943048738   0.264862305
Br       0.077190737   0.641500529   0.582393560
Br       0.476812432   0.332368908   0.483435013
Br       0.032239910   0.293848686   0.631578653
Br       0.523187568   0.832368908   0.016564992
Br       0.772098353   0.213734725   0.813122095
Br       0.465320892   0.557964830   0.096378046
Br       0.758989315   0.674799835   0.972688563
Br       0.523187568   0.667631092   0.516565017
Br       0.964163136   0.549238454   0.772247387
Br       0.922809240   0.358499471   0.417606440
Br       0.032239910   0.206151329   0.131578668
Br       0.622433861   0.287946396   0.708179568
Br       0.377566109   0.787946396   0.791820432
Br       0.227158132   0.048834211   0.071889470
Br       0.758989315   0.825200165   0.472688593
Br       0.534679078   0.057964815   0.403621969
Br       0.772098353   0.286265290   0.313122065
Br       0.968782866   0.430515813   0.907997446
Br       0.227158132   0.451165789   0.571889500
Br       0.534679078   0.442035200   0.903621939
Br       0.922809240   0.141500544   0.917606440
Br       0.241010715   0.325200195   0.027311407
Br       0.469398669   0.056951284   0.735137695
Br       0.530601361   0.556951262   0.764862305


K_POINTS automatic
2 2 2 0 0 0
