&control
calculation='vc-relax',
prefix='cs3sbcl6',
pseudo_dir='./',
outdir='./'
disk_io = 'none'
/
&system
ibrav=0,
nat=40,
ntyp=3,
ecutwfc=80,
ecutrho=400,
occupations = 'smearing' 
degauss = 0.005
/
&electrons
conv_thr=1.0d-8
/
&ions
/
&cell
/

ATOMIC_SPECIES
Cs 1.0 Cs.pbe-sp-hgh.UPF
Sb 1.0 Sb.pbe-dn-rrkjus_psl.0.3.1.UPF
Cl 1.0 Cl.pbe-n-rrkjus_psl.0.1.UPF

CELL_PARAMETERS {angstrom}
       14.3843669891         0.0000000000         0.0000000000
      -11.9316247303         8.0340739961         0.0000000000
       -2.1422001914         0.6539975782        13.2513535926

ATOMIC_POSITIONS {crystal}
Cs     0.024873000         0.347667009         0.700852990
Cs     0.204653993         0.303948998         0.067777999
Cs     0.467914999         0.159661993         0.145116001
Cs     0.975126982         0.652333021         0.299147010
Cs     0.840337992         0.532085001         0.645115972
Cs     0.696051002         0.795346022         0.567777991
Cs     0.652333021         0.975126982         0.200853005
Cs     0.159661993         0.467914999         0.354883999
Cs     0.532085001         0.840337992         0.854884028
Cs     0.303948998         0.204653993         0.432222009
Cs     0.347667009         0.024873000         0.799147010
Cs     0.795346022         0.696051002         0.932222009
Sb     0.783636987         0.783636987         0.250000000
Sb     0.500000000         0.000000000         0.500000000
Sb     0.216362998         0.216362998         0.750000000
Sb     0.000000000         0.500000000         0.000000000
Cl     0.381110996         0.727602005         0.580762029
Cl     0.139165998         0.638338983         0.814517021
Cl     0.361660987         0.860834002         0.314516991
Cl     0.832849026         0.717356980         0.435093999
Cl     0.502326012         0.388034999         0.680841029
Cl     0.611965001         0.497673988         0.180840999
Cl     0.222510993         0.868142009         0.534669995
Cl     0.727602005         0.381110996         0.919237971
Cl     0.272397995         0.618888974         0.080761999
Cl     0.860834002         0.361660987         0.185482994
Cl     0.082924001         0.968191028         0.193690002
Cl     0.917075992         0.031808998         0.806309998
Cl     0.131858006         0.777489007         0.034669999
Cl     0.282642990         0.167151004         0.935093999
Cl     0.031808998         0.917075992         0.693690002
Cl     0.777489007         0.131858006         0.465330005
Cl     0.167151004         0.282642990         0.564906001
Cl     0.638338983         0.139165998         0.685482979
Cl     0.968191028         0.082924001         0.306309998
Cl     0.388034999         0.502326012         0.819158971
Cl     0.618888974         0.272397995         0.419238001
Cl     0.868142009         0.222510993         0.965330005
Cl     0.717356980         0.832849026         0.064906001
Cl     0.497673988         0.611965001         0.319159001

K_POINTS automatic
2 2 2 0 0 0














