&control
calculation='scf',
prefix='csi',
pseudo_dir='./',
outdir='./'
disk_io = 'none'
/
&system
ibrav=0,
nat=2,
ntyp=2,
ecutwfc=20,
ecutrho=100,
occupations = 'smearing' 
degauss = 0.005
/
&electrons
conv_thr=1.0d-8
/
&ions
/
&cell
/

ATOMIC_SPECIES
Cs 1.0 Cs.pz-sp-hgh.UPF
I 1.0 I.pz-n-rrkjus_psl.0.2.UPF

CELL_PARAMETERS {angstrom}
        5.5572776794         0.0000000000         0.0000000000
        2.7786388397         4.8127436463         0.0000000000
        2.7786388397         1.6042478821         4.5374982245

ATOMIC_POSITIONS {crystal}
Cs	     0.000000000         0.000000000         0.000000000
I	     0.500000000         0.500000000         0.500000000

K_POINTS automatic
   16   16   32    0    0    0
