&control
calculation='scf',
prefix='cs3sb2i9',
pseudo_dir='./',
outdir='./'
disk_io = 'none'
/
&system
ibrav=0,
nat=28,
ntyp=3,
ecutwfc=20,
ecutrho=100,
occupations = 'smearing' 
degauss = 0.005
/
&electrons
conv_thr=1.0d-8
/
&ions
/
&cell
/

ATOMIC_SPECIES
Cs 1.0 Cs.pz-sp-hgh.UPF
Sb 1.0 Sb.pz-dn-rrkjus_psl.0.3.1.UPF
I 1.0 I.pz-n-rrkjus_psl.0.2.UPF

CELL_PARAMETERS {angstrom}
        8.5724115372         0.0000000000         0.0000000000
       -4.2862057686         7.4239261629         0.0000000000
        0.0000000000         0.0000000000        21.7308921814

ATOMIC_POSITIONS {crystal}
Cs	     0.666666985         0.333332986         0.077160999
Cs	     0.333332986         0.666666985         0.577161014
Cs	     0.333332986         0.666666985         0.922838986
Cs	     0.666666985         0.333332986         0.422838986
Cs	     0.000000000         0.000000000         0.250000000
Cs	     0.000000000         0.000000000         0.750000000
Sb	     0.666666985         0.333332986         0.843069971
Sb	     0.666666985         0.333332986         0.656930029
Sb	     0.333332986         0.666666985         0.156930000
Sb	     0.333332986         0.666666985         0.343070000
I	     0.167838007         0.832162023         0.083742000
I	     0.832162023         0.664324999         0.916257977
I	     0.832162023         0.167838007         0.916257977
I	     0.832162023         0.664324999         0.583742023
I	     0.335675001         0.167838007         0.916257977
I	     0.664324999         0.832162023         0.416258007
I	     0.167838007         0.335675001         0.416258007
I	     0.167838007         0.832162023         0.416258007
I	     0.501501024         0.003002000         0.250000000
I	     0.498499006         0.501501024         0.750000000
I	     0.003002000         0.501501024         0.750000000
I	     0.996998012         0.498499006         0.250000000
I	     0.501501024         0.498499006         0.250000000
I	     0.498499006         0.996998012         0.750000000
I	     0.335675001         0.167838007         0.583742023
I	     0.832162023         0.167838007         0.583742023
I	     0.167838007         0.335675001         0.083742000
I	     0.664324999         0.832162023         0.083742000

K_POINTS automatic
   10   10   10    0    0    0
