&control
calculation='scf',
prefix='sb3au',
pseudo_dir='./',
outdir='./'
disk_io = 'none'
/
&system
ibrav=0,
nat=4,
ntyp=2,
ecutwfc=20,
ecutrho=100,
occupations = 'smearing' 
degauss = 0.02
/
&electrons
conv_thr=1.0d-8
/
&ions
/
&cell
/

ATOMIC_SPECIES
Sb 1.0 Sb.pz-dn-rrkjus_psl.0.3.1.UPF
Au 1.0 Au.pz-dn-rrkjus_psl.0.1.UPF

CELL_PARAMETERS {angstrom}
        5.1692981720         0.0000000000         0.0000000000
       -1.7230995003         4.8736610164         0.0000000000
       -1.7230995003        -2.4368307409         4.2207141153

ATOMIC_POSITIONS {crystal}
Sb	     0.000000000         0.500000000         0.500000000
Sb	     0.500000000         0.500000000         0.000000000
Sb	     0.500000000         0.000000000         0.500000000
Au	     0.000000000         0.000000000         0.000000000

K_POINTS automatic
   29   29   58    0    0    0
