&control
calculation='scf',
prefix='aucl2',
pseudo_dir='./',
outdir='./'
disk_io = 'none'
/
&system
ibrav=0,
nat=12,
ntyp=2,
ecutwfc=20,
ecutrho=100,
occupations = 'smearing' 
degauss = 0.005
/
&electrons
conv_thr=1.0d-8
/
&ions
/
&cell
/

ATOMIC_SPECIES
Au 1.0 Au.pz-dn-rrkjus_psl.0.1.UPF
Cl 1.0 Cl.pz-n-rrkjus_psl.0.1.UPF

CELL_PARAMETERS {angstrom}
        7.1505284309         0.0000000000         0.0000000000
        0.4298801420         7.2915936070         0.0000000000
        2.5453138138         0.0841576506         6.8952558675

ATOMIC_POSITIONS {crystal}
Au	     0.727244973         0.517118990         0.461910009
Au	     0.272754997         0.482881010         0.538089991
Au	     0.622391999         0.247449994         0.092831001
Au	     0.377608001         0.752550006         0.907168984
Cl	     0.822227001         0.244407997         0.293242991
Cl	     0.177772999         0.755591989         0.706757009
Cl	     0.332033992         0.208495006         0.374045014
Cl	     0.667966008         0.791504979         0.625954986
Cl	     0.427713990         0.249939993         0.899631977
Cl	     0.572286010         0.750060022         0.100368001
Cl	     0.903586984         0.281958997         0.821766019
Cl	     0.096413001         0.718041003         0.178233996

K_POINTS automatic
   3   3   3   0   0   0
