&control
calculation='scf',
prefix='cs',
pseudo_dir='./',
outdir='./'
disk_io = 'none'
/
&system
ibrav=0,
nat=1,
ntyp=1,
ecutwfc=20,
occupations = 'smearing' 
degauss = 0.02
/
&electrons
conv_thr=1.0d-8
/
&ions
/
&cell
/

ATOMIC_SPECIES
Cs 1.0 Cs.pz-sp-hgh.UPF

CELL_PARAMETERS {angstrom}
        5.3239521980         0.0000000000         0.0000000000
       -1.7746508456         5.0194702293         0.0000000000
       -1.7746508456        -2.5097353543         4.3469885938

ATOMIC_POSITIONS {crystal}
Cs 0 0 0

K_POINTS automatic
   2   2   4   0   0   0
