&control
calculation='vc-relax',
prefix='sbcui6',
pseudo_dir='./',
outdir='./'
disk_io = 'none'
nstep = 500
/
&system
ibrav=0,
nat=32,
ntyp=3,
ecutwfc=80,
ecutrho=400,
occupations = 'smearing' 
degauss = 0.005
/
&electrons
conv_thr=1.0d-8
/
&ions
/
&cell
/

ATOMIC_SPECIES
Sb 1.0 Sb.pbe-dn-rrkjus_psl.0.3.1.UPF
Cu 1.0 Cu.pbe-dn-rrkjus_psl.0.2.UPF
I 1.0 I.pbe-n-rrkjus_psl.0.2.UPF

CELL_PARAMETERS (angstrom)
   6.968044683  -0.032647909   0.050947379
  -3.450118609   9.880154179   0.021198421
  -1.170881009  -4.474128813  13.483556296

ATOMIC_POSITIONS (crystal)
Sb       0.586653882   0.917560446   0.620900054
Sb       0.413346118   0.082439569   0.379099976
Sb       0.985403820   0.310460657   0.870634408
Sb       0.014596184   0.689539373   0.129365563
Cu       0.302656548   0.634161158   0.765471623
Cu       0.697343482   0.365838812   0.234528362
Cu       0.500000000   0.500000000   0.500000000
Cu       0.000000000   0.000000000   0.000000000
I       0.661621468   0.745380533   0.751684660
I       0.338378561   0.254619437   0.248315340
I       0.240192228   0.844150593   0.749777508
I       0.759807772   0.155849407   0.250222492
I       0.945467214   0.529965933   0.784285809
I       0.054532773   0.470034097   0.215714191
I       0.355124350   0.416215956   0.770561298
I       0.644875620   0.583784014   0.229438702
I       0.728850460   0.369573450   0.507020612
I       0.271149570   0.630426580   0.492979358
I       0.795392735   0.715473898   0.511435865
I       0.204607250   0.284526102   0.488564165
I       0.752091075   0.109163787   0.970982903
I       0.247908955   0.890836198   0.029017071
I       0.722029574   0.798673243   0.022566150
I       0.277970441   0.201326743   0.977433846
I       0.587935646   0.184056692   0.739586716
I       0.412064384   0.815943293   0.260413254
I       1.005088556   0.057626309   0.725816923
I      -0.005088545   0.942373676   0.274183077
I       0.765963400   0.046713483   0.482947832
I       0.234036630   0.953286521   0.517052168
I       0.719976468   0.434658982   0.978393874
I       0.280023547   0.565341018   0.021606115

K_POINTS automatic
2 2 2 0 0 0
