 &input
    asr='crystal',
  amass(1)=12.011,
  amass(2)=14.007,
  amass(3)=1.008,
  amass(4)=207.2,
  amass(5)=126.905,
    fildyn='matdyn1',
    lperm=.true.
/
