&control
calculation='scf',
prefix='cscl',
pseudo_dir='./',
outdir='./'
disk_io = 'none'
/
&system
ibrav=0,
nat=2,
ntyp=2,
ecutwfc=20,
ecutrho=100,
occupations = 'smearing' 
degauss = 0.005
/
&electrons
conv_thr=1.0d-8
/
&ions
/
&cell
/

ATOMIC_SPECIES
Cs 1.0 Cs.pz-sp-hgh.UPF
Cl 1.0 Cl.pz-n-rrkjus_psl.0.1.UPF

CELL_PARAMETERS {angstrom}
        4.9935984612         0.0000000000         0.0000000000
        2.4967992306         4.3245831237         0.0000000000
        2.4967992306         1.4415277079         4.0772560701

ATOMIC_POSITIONS {crystal}
Cs     0.000000000         0.000000000         0.000000000
Cl     0.500000000         0.500000000         0.500000000 
 
K_POINTS automatic
   19   38   38    0    0    0
