&control
calculation='scf',
prefix='cu',
pseudo_dir='./',
outdir='./'
disk_io = 'none'
/
&system
ibrav=0,
nat=1,
ntyp=1,
ecutwfc=20,
ecutrho=100,
occupations = 'smearing' 
degauss = 0.02
/
&electrons
conv_thr=1.0d-8
/
&ions
/
&cell
/

ATOMIC_SPECIES
Cu 1.0 Cu.pz-dn-rrkjus_psl.0.2.UPF

CELL_PARAMETERS {angstrom}
        2.5571861267         0.0000000000         0.0000000000
        1.2785930634         2.2145881479         0.0000000000
        1.2785930634         0.7381960493         2.0879337293

ATOMIC_POSITIONS {crystal}
Cu	     0.000000000         0.000000000         0.000000000

K_POINTS automatic
   16   24   24    0    0    0
