&control
calculation='vc-relax',
prefix='csau2cl3',
pseudo_dir='./',
outdir='./'
disk_io = 'none'
/
&system
ibrav=0,
nat=24,
ntyp=3,
ecutwfc=80,
ecutrho=400,
occupations = 'smearing' 
degauss = 0.005
nosym = .TRUE.
/
&electrons
conv_thr=1.0d-8
/
&ions
/
&cell
/

ATOMIC_SPECIES
Cs 1.0 Cs.pbe-sp-hgh.UPF
Au 1.0 Au.pbe-dn-rrkjus_psl.0.1.UPF
Cl 1.0 Cl.pbe-n-rrkjus_psl.0.1.UPF

CELL_PARAMETERS (angstrom)
   5.497225116   0.000000000  -0.000000692
   0.000000000   9.680199224   0.000000000
  -0.000002140   0.000000000  11.914507995

ATOMIC_POSITIONS (crystal)
Cs       0.250000850   0.996839374   0.708054971
Cs       0.749999150   0.003160647   0.291945029
Cs       0.749999150   0.496839344   0.791945029
Cs       0.250000850   0.503160626   0.208054971
Au       0.499618042   0.271231458   0.500932435
Au       0.500381988   0.771231458  -0.000932445
Au       0.000382327   0.228766482   1.000932695
Au       0.999617655   0.728766467   0.499067305
Au       0.000382327   0.271233533   0.500932665
Au       0.500381988   0.728768542   0.499067535
Au       0.999617655   0.771233533  -0.000932675
Au       0.499618042   0.228768557   1.000932465
Cl       0.250000736   0.796291377   0.343900485
Cl       0.250000736   0.703708623   0.843900485
Cl       0.749999264   0.203708637   0.656099515
Cl       0.749999264   0.296291348   0.156099515
Cl       0.250000733   0.209754787   0.343284617
Cl       0.749999267   0.790245228   0.656715383
Cl       0.749999267   0.709754772   0.156715368
Cl       0.250000733   0.290245198   0.843284617
Cl       0.250003280   0.499368678   0.603978172
Cl       0.749996720   0.500631322   0.396021828
Cl       0.749996720   0.999368678   0.896021828
Cl       0.250003280   0.000631331   0.103978164

K_POINTS automatic
3 3 3 0 0 0 
