&control
calculation='vc-relax',
prefix='csag2cl3',
pseudo_dir='./',
outdir='./'
disk_io = 'none'
/
&system
ibrav=0,
nat=24,
ntyp=3,
ecutwfc=80,
ecutrho=400,
occupations = 'smearing' 
degauss = 0.005
/
&electrons
conv_thr=1.0d-8
/
&ions
/
&cell
/

ATOMIC_SPECIES
Cs 1.0 Cs.pbe-sp-hgh.UPF
Ag 1.0 Ag.pbe-dn-rrkjus_psl.0.1.UPF
Cl 1.0 Cl.pbe-n-rrkjus_psl.0.1.UPF

CELL_PARAMETERS (angstrom)
   5.367753206   0.000000000   0.000005774
   0.000000000   9.717055957   0.000000000
   0.000013421   0.000000000  12.701290945

ATOMIC_POSITIONS (crystal)
Cs       0.250000370   0.994368366   0.707819219
Cs       0.749999630   0.005631655   0.292180781
Cs       0.749999630   0.494368336   0.792180781
Cs       0.250000370   0.505631634   0.207819219
Ag       0.500033577   0.326481953   0.498076876
Ag       0.499966453   0.826481953   0.001923114
Ag      -0.000038069   0.173515587   0.998074879
Ag       1.000038051   0.673515572   0.501925121
Ag      -0.000038069   0.326484428   0.498074849
Ag       0.499966453   0.673518047   0.501923094
Ag       1.000038051   0.826484428   0.001925141
Ag       0.500033577   0.173518062   0.998076906
Cl       0.250000050   0.801161555   0.363786716
Cl       0.250000050   0.698838445   0.863786716
Cl       0.749999950   0.198838459   0.636213284
Cl       0.749999950   0.301161526   0.136213284
Cl       0.250000329   0.212125635   0.353141496
Cl       0.749999671   0.787874380   0.646858504
Cl       0.749999671   0.712125620   0.146858489
Cl       0.250000329   0.287874350   0.853141496
Cl       0.250002175   0.497459303   0.617198218
Cl       0.749997825   0.502540697   0.382801782
Cl       0.749997825   0.997459303   0.882801782
Cl       0.250002175   0.002540706   0.117198210

K_POINTS automatic
3 3 3 0 0 0 
