&control
calculation='scf',
prefix='csau',
pseudo_dir='./',
outdir='./'
disk_io = 'none'
/
&system
ibrav=0,
nat=2,
ntyp=2,
ecutwfc=20,
ecutrho=100,
occupations = 'smearing' 
degauss = 0.005
/
&electrons
conv_thr=1.0d-8
/
&ions
/
&cell
/

ATOMIC_SPECIES
Cs 1.0 Cs.pz-sp-hgh.UPF
Au 1.0 Au.pz-dn-rrkjus_psl.0.1.UPF

CELL_PARAMETERS {angstrom}
        4.3810606003         0.0000000000         0.0000000000
        0.0000000000         4.3810606003         0.0000000000
        0.0000000000         0.0000000000         4.3810606003

ATOMIC_POSITIONS {crystal}
Cs	     0.000000000         0.000000000         0.000000000
Au	     0.500000000         0.500000000         0.500000000

K_POINTS automatic
