&control
calculation='vc-relax',
prefix='cs3bii6',
pseudo_dir='./',
outdir='./'
disk_io = 'none'
/
&system
ibrav=0,
nat=40,
ntyp=3,
ecutwfc=80,
ecutrho=400,
occupations = 'smearing' 
degauss = 0.005
/
&electrons
conv_thr=1.0d-8
/
&ions
/
&cell
/

ATOMIC_SPECIES
Cs 1.0 Cs.pbe-sp-hgh.UPF
Bi 1.0 Bi.pbe-dn-rrkjus_psl.0.2.2.UPF
I 1.0 I.pbe-n-rrkjus_psl.0.2.UPF

CELL_PARAMETERS (angstrom)
  15.922543269   0.062453285   0.076077508
 -13.172637974   8.944979698  -0.076081424
  -2.300010036   0.702168296  14.847266088

ATOMIC_POSITIONS (crystal)
Cs       0.022126013   0.339960916   0.701105869
Cs       0.170635813   0.274824661   0.057752375
Cs       0.483871379   0.168612221   0.144943067
Cs       0.977873969   0.660039114   0.298894131
Cs       0.831387979   0.516128150   0.644943165
Cs       0.725176967   0.829366318   0.557751316
Cs       0.660038629   0.977873714   0.201104764
Cs       0.168612006   0.483871850   0.355056806
Cs       0.516128621   0.831387764   0.855056962
Cs       0.274823033   0.170633697   0.442248684
Cs       0.339961401   0.022126268   0.798895251
Cs       0.829364202   0.725175339   0.942247633
Bi       0.790912382   0.790911840   0.249993322
Bi       0.500000000  -0.000000000   0.500000000
Bi       0.209087603   0.209088145   0.750006678
Bi       0.000000000   0.500000000  -0.000000000
I        0.378354895   0.720612225   0.578302768
I        0.131593350   0.632282915   0.808569068
I        0.367716699   0.868405989   0.308569226
I        0.849564205   0.732392208   0.437985804
I        0.495964173   0.377801634   0.677392940
I        0.622201863   0.504040228   0.177393517
I        0.213145595   0.860951452   0.533749473
I        0.720612284   0.378354632   0.921697330
I        0.279387716   0.621645338   0.078302640
I        0.868406650   0.367717055   0.191430947
I        0.099046402   0.980650558   0.193266549
I        0.900953591   0.019349468   0.806733451
I        0.139047943   0.786853323   0.033749076
I        0.267604343   0.150434809   0.937981191
I        0.019349246   0.900952475   0.693263456
I        0.786854405   0.139048563   0.466250527
I        0.150435825   0.267607762   0.562014196
I        0.632283271   0.131594011   0.691430744
I        0.980650780   0.099047518   0.306736544
I        0.377798137   0.495959772   0.822606453
I        0.621645075   0.279387775   0.421697262
I        0.860952072   0.213146677   0.966250928
I        0.732395627   0.849565221   0.062018809
I        0.504035827   0.622198366   0.322607090

K_POINTS automatic
2 2 2 0 0 0














