&control
calculation='scf',
prefix='csbr3',
pseudo_dir='./',
outdir='./'
disk_io = 'none'
/
&system
ibrav=0,
nat=16,
ntyp=2,
ecutwfc=20,
ecutrho=100,
occupations = 'smearing' 
degauss = 0.005
/
&electrons
conv_thr=1.0d-8
/
&ions
/
&cell
/

ATOMIC_SPECIES
Cs 1.0 Cs.pz-sp-hgh.UPF
Br 1.0 Br.pz-n-rrkjus_psl.0.2.UPF

CELL_PARAMETERS {angstrom}
        6.8427910805         0.0000000000         0.0000000000
        0.0000000000         9.8544139862         0.0000000000
        0.0000000000         0.0000000000        10.2593517303

ATOMIC_POSITIONS {crystal}
Cs     0.250000000         0.455659986         0.183981001
Cs     0.750000000         0.544340014         0.816018999
Cs     0.750000000         0.955659986         0.316018999
Cs     0.250000000         0.044340000         0.683981001
Br     0.250000000         0.388713002         0.821395993
Br     0.750000000         0.611286998         0.178604007
Br     0.750000000         0.888713002         0.678604007
Br     0.250000000         0.111286998         0.321395993
Br     0.250000000         0.564306021         0.624743998
Br     0.750000000         0.435694009         0.375256002
Br     0.750000000         0.064305998         0.875256002
Br     0.250000000         0.935693979         0.124743998
Br     0.250000000         0.735442996         0.441661000
Br     0.750000000         0.264557004         0.558339000
Br     0.750000000         0.235442996         0.058339000
Br     0.250000000         0.764557004         0.941661000

K_POINTS automatic
   5   5   5   0   0   0
